 #*********************PERSONAL PROGRAMMING PROJECT**************************
 #AUTHOR: PADMANABHA PAVAN CHANDRA VUNDURTHY(62750) (MSc.Computational Materials Science)  under the supervision of DR. ARUN PRAKASH
 #TITLE: Big Data Visualization of Large and Ultra Large Scale Atomistic Simulation
 #Analysis of Average Properties of the Grain separated  in blocks of structure types: 0=Other Unknown Defects,1=FCC,2=HCP,3=BCC,... FCC+HCP, FCC+HCP+0, All structure types.
 #file name->           1 :=Sorted_00000_GrNUM.txt
 #file attribites in sequence::==    18632909          11           8
 #file name->           2 :=DATA_FOR_TESTCASE_2.txt
 #file attribites in sequence::==    18632904          13           3
 #Macroscopic Von Mises Stress:->   145.971375    
 #=======================STRUCTURE TYPE->           0 =======================
 #GRAIN NUMBER| COORDINATES: X Y Z | STRESS XX YY ZZ ZY XZ XY | GRAIN VOLUME | NUMBER OF ATOMS | VON-MISES STRESS |
 #AVERAGE VON MISES STRESS FOR THIS STRUCTURE TYPE IS   125.880241    
           1   432.741547       1034.44836       77.3495483       0.00000000       2.00000000       0.00000000       0.00000000       0.00000000       0.00000000       9894.00000       19788.0000       2.00000000    
           2   406.115051       799.608459       75.9181824       0.00000000       4.00000000       0.00000000       0.00000000       0.00000000       0.00000000       7152.50000       14305.0000       4.00000000    
           3   888.489624       655.835632       75.8183670       0.00000000       6.00000000       0.00000000       0.00000000       0.00000000       0.00000000       8134.50000       16269.0000       6.00000000    
           4   1384.20996       608.589966       74.7481461       0.00000000       8.00000000       0.00000000       0.00000000       0.00000000       0.00000000       8263.50000       16527.0000       8.00000000    
           5   497.694275       259.767578       75.0820389       0.00000000       10.0000000       0.00000000       0.00000000       0.00000000       0.00000000       7015.50000       14031.0000       10.0000000    
           6   130.113358       840.379150       76.5878983       0.00000000       12.0000000       0.00000000       0.00000000       0.00000000       0.00000000       9596.50000       19193.0000       12.0000000    
           7   769.827271       155.372955       75.8221893       0.00000000       14.0000000       0.00000000       0.00000000       0.00000000       0.00000000       7815.00000       15630.0000       14.0000000    
           8   1624.18860       313.299194       76.5558319       0.00000000       16.0000000       0.00000000       0.00000000       0.00000000       0.00000000       12227.0000       24454.0000       16.0000000    
           9   743.418335       303.223938       77.0325699       0.00000000       18.0000000       0.00000000       0.00000000       0.00000000       0.00000000       8975.50000       17951.0000       18.0000000    
          10   1151.30005       723.310974       76.9029770       0.00000000       20.0000000       0.00000000       0.00000000       0.00000000       0.00000000       6725.00000       13450.0000       20.0000000    
          11   1126.58228       257.324890       77.2834473       0.00000000       22.0000000       0.00000000       0.00000000       0.00000000       0.00000000       8076.50000       16153.0000       22.0000000    
          12   543.836975       351.313690       77.5519562       0.00000000       24.0000000       0.00000000       0.00000000       0.00000000       0.00000000       6332.50000       12665.0000       24.0000000    
          13   529.162170       187.050354       76.2216034       0.00000000       26.0000000       0.00000000       0.00000000       0.00000000       0.00000000       7285.50000       14571.0000       26.0000000    
          14   307.664246       508.551666       76.3852615       0.00000000       28.0000000       0.00000000       0.00000000       0.00000000       0.00000000       7287.00000       14574.0000       28.0000000    
          15   1733.97314       270.553009       76.8233414       0.00000000       30.0000000       0.00000000       0.00000000       0.00000000       0.00000000       8026.50000       16053.0000       30.0000000    
          16   708.928894       315.666779       76.9113159       0.00000000       32.0000000       0.00000000       0.00000000       0.00000000       0.00000000       7869.00000       15738.0000       32.0000000    
          17   1294.36084       948.118286       76.9160538       0.00000000       34.0000000       0.00000000       0.00000000       0.00000000       0.00000000       10388.0000       20776.0000       34.0000000    
          18   593.924805       721.379211       75.6586533       0.00000000       36.0000000       0.00000000       0.00000000       0.00000000       0.00000000       6100.50000       12201.0000       36.0000000    
          19   1287.80591       601.410278       76.8024521       0.00000000       38.0000000       0.00000000       0.00000000       0.00000000       0.00000000       9657.50000       19315.0000       38.0000000    
          20   1131.69824       1125.99902       76.3123703       0.00000000       40.0000000       0.00000000       0.00000000       0.00000000       0.00000000       4897.00000       9794.00000       40.0000000    
          21   453.341003       909.125244       76.4666443       0.00000000       42.0000000       0.00000000       0.00000000       0.00000000       0.00000000       9484.00000       18968.0000       42.0000000    
          22   1556.86877       1080.55469       75.4864807       0.00000000       44.0000000       0.00000000       0.00000000       0.00000000       0.00000000       7722.50000       15445.0000       44.0000000    
          23   64.0333176       595.339172       75.9362106       0.00000000       46.0000000       0.00000000       0.00000000       0.00000000       0.00000000       6209.00000       12418.0000       46.0000000    
          24   992.215576       459.316132       75.0406265       0.00000000       48.0000000       0.00000000       0.00000000       0.00000000       0.00000000       10429.0000       20858.0000       48.0000000    
          25   1586.65747       600.721985       76.9979019       0.00000000       50.0000000       0.00000000       0.00000000       0.00000000       0.00000000       10811.0000       21622.0000       50.0000000    
          26   1419.48242       517.992737       76.2396622       0.00000000       52.0000000       0.00000000       0.00000000       0.00000000       0.00000000       9482.00000       18964.0000       52.0000000    
          27   84.1235657       92.9419479       76.3966064       0.00000000       54.0000000       0.00000000       0.00000000       0.00000000       0.00000000       7239.50000       14479.0000       54.0000000    
          28   222.524658       320.382294       76.8099289       0.00000000       56.0000000       0.00000000       0.00000000       0.00000000       0.00000000       6939.50000       13879.0000       56.0000000    
          29   1617.87366       832.300293       75.2613373       0.00000000       58.0000000       0.00000000       0.00000000       0.00000000       0.00000000       4657.50000       9315.00000       58.0000000    
          30   1467.62134       705.440186       75.5393219       0.00000000       60.0000000       0.00000000       0.00000000       0.00000000       0.00000000       6513.00000       13026.0000       60.0000000    
          31   1185.11475       977.137451       77.0622482       0.00000000       62.0000000       0.00000000       0.00000000       0.00000000       0.00000000       7126.00000       14252.0000       62.0000000    
          32   1700.82214       1046.78857       76.6052780       0.00000000       64.0000000       0.00000000       0.00000000       0.00000000       0.00000000       5581.50000       11163.0000       64.0000000    
          33   1474.47852       96.7469864       76.7540741       0.00000000       66.0000000       0.00000000       0.00000000       0.00000000       0.00000000       7397.00000       14794.0000       66.0000000    
          34   595.448914       136.864243       76.2353897       0.00000000       68.0000000       0.00000000       0.00000000       0.00000000       0.00000000       4837.00000       9674.00000       68.0000000    
          35   949.435059       1027.06470       77.6665878       0.00000000       70.0000000       0.00000000       0.00000000       0.00000000       0.00000000       6812.50000       13625.0000       70.0000000    
          36   781.096619       189.839706       73.5024796       0.00000000       72.0000000       0.00000000       0.00000000       0.00000000       0.00000000       5112.00000       10224.0000       72.0000000    
          37   641.229553       259.981598       75.4362946       0.00000000       74.0000000       0.00000000       0.00000000       0.00000000       0.00000000       8442.50000       16885.0000       74.0000000    
          38   1382.64978       407.503754       76.9350891       0.00000000       76.0000000       0.00000000       0.00000000       0.00000000       0.00000000       8459.00000       16918.0000       76.0000000    
          39   1247.36133       501.676941       76.2864075       0.00000000       78.0000000       0.00000000       0.00000000       0.00000000       0.00000000       10601.5000       21203.0000       78.0000000    
          40   998.754272       1122.58508       75.6034622       0.00000000       80.0000000       0.00000000       0.00000000       0.00000000       0.00000000       7805.00000       15610.0000       80.0000000    
          41   1682.45569       147.298828       76.5507584       0.00000000       82.0000000       0.00000000       0.00000000       0.00000000       0.00000000       5633.50000       11267.0000       82.0000000    
          42   1567.55896       445.186340       76.4952545       0.00000000       84.0000000       0.00000000       0.00000000       0.00000000       0.00000000       10609.0000       21218.0000       84.0000000    
          43   236.596725       447.984772       75.8357315       0.00000000       86.0000000       0.00000000       0.00000000       0.00000000       0.00000000       7106.00000       14212.0000       86.0000000    
          44   856.843140       576.190918       76.9641266       0.00000000       88.0000000       0.00000000       0.00000000       0.00000000       0.00000000       8833.50000       17667.0000       88.0000000    
          45   694.886963       699.933228       76.7049866       0.00000000       90.0000000       0.00000000       0.00000000       0.00000000       0.00000000       8562.00000       17124.0000       90.0000000    
          46   1572.26025       143.046356       77.4530945       0.00000000       92.0000000       0.00000000       0.00000000       0.00000000       0.00000000       6055.50000       12111.0000       92.0000000    
          47   825.050537       1019.32043       75.8531647       0.00000000       94.0000000       0.00000000       0.00000000       0.00000000       0.00000000       10464.0000       20928.0000       94.0000000    
          48   948.763428       471.848785       76.3991013       0.00000000       96.0000000       0.00000000       0.00000000       0.00000000       0.00000000       10281.0000       20562.0000       96.0000000    
          49   1449.40747       637.631042       77.4828262       0.00000000       98.0000000       0.00000000       0.00000000       0.00000000       0.00000000       8057.50000       16115.0000       98.0000000    
          50   1075.18811       459.198120       75.8880692       0.00000000       100.000000       0.00000000       0.00000000       0.00000000       0.00000000       6952.00000       13904.0000       100.000000    
          51   848.574951       916.580017       76.8641052       0.00000000       102.000000       0.00000000       0.00000000       0.00000000       0.00000000       7591.00000       15182.0000       102.000000    
          52   142.846573       215.926376       75.9067383       0.00000000       104.000000       0.00000000       0.00000000       0.00000000       0.00000000       8860.50000       17721.0000       104.000000    
          53   778.059448       813.064758       76.4622345       0.00000000       106.000000       0.00000000       0.00000000       0.00000000       0.00000000       8285.00000       16570.0000       106.000000    
          54   621.792969       419.005951       77.0564651       0.00000000       108.000000       0.00000000       0.00000000       0.00000000       0.00000000       10829.0000       21658.0000       108.000000    
          55   1705.64636       1008.34619       77.5257492       0.00000000       110.000000       0.00000000       0.00000000       0.00000000       0.00000000       6542.50000       13085.0000       110.000000    
          56   749.532471       1116.66785       77.8991547       0.00000000       112.000000       0.00000000       0.00000000       0.00000000       0.00000000       6995.50000       13991.0000       112.000000    
          57   529.396851       105.410309       76.7646942       0.00000000       114.000000       0.00000000       0.00000000       0.00000000       0.00000000       6368.50000       12737.0000       114.000000    
          58   894.049377       830.917236       77.1645050       0.00000000       116.000000       0.00000000       0.00000000       0.00000000       0.00000000       7250.00000       14500.0000       116.000000    
          59   1612.46411       624.293030       75.6722717       0.00000000       118.000000       0.00000000       0.00000000       0.00000000       0.00000000       9244.50000       18489.0000       118.000000    
          60   1409.98364       869.211304       74.6603088       0.00000000       120.000000       0.00000000       0.00000000       0.00000000       0.00000000       7581.00000       15162.0000       120.000000    
          61   1301.96045       827.124634       75.6206894       0.00000000       122.000000       0.00000000       0.00000000       0.00000000       0.00000000       8034.00000       16068.0000       122.000000    
          62   1428.73669       1037.32483       76.8686600       0.00000000       124.000000       0.00000000       0.00000000       0.00000000       0.00000000       11857.5000       23715.0000       124.000000    
          63   654.555786       129.053955       76.2591934       0.00000000       126.000000       0.00000000       0.00000000       0.00000000       0.00000000       6611.50000       13223.0000       126.000000    
          64   414.237305       294.586365       76.6162338       0.00000000       128.000000       0.00000000       0.00000000       0.00000000       0.00000000       8236.50000       16473.0000       128.000000    
          65   708.346497       955.417114       76.6565933       0.00000000       130.000000       0.00000000       0.00000000       0.00000000       0.00000000       6505.50000       13011.0000       130.000000    
          66   147.421860       513.315002       76.5170746       0.00000000       132.000000       0.00000000       0.00000000       0.00000000       0.00000000       6218.50000       12437.0000       132.000000    
          67   1486.58826       314.515015       75.7944412       0.00000000       134.000000       0.00000000       0.00000000       0.00000000       0.00000000       8036.50000       16073.0000       134.000000    
          68   118.034225       370.029510       74.6953049       0.00000000       136.000000       0.00000000       0.00000000       0.00000000       0.00000000       8446.50000       16893.0000       136.000000    
          69   138.532806       991.822998       74.9538116       0.00000000       138.000000       0.00000000       0.00000000       0.00000000       0.00000000       9784.50000       19569.0000       138.000000    
          70   286.496368       233.027145       78.6025314       0.00000000       140.000000       0.00000000       0.00000000       0.00000000       0.00000000       8983.50000       17967.0000       140.000000    
          71   1519.73499       912.469299       76.2431641       0.00000000       142.000000       0.00000000       0.00000000       0.00000000       0.00000000       9020.00000       18040.0000       142.000000    
          72   1079.95178       1031.26978       75.8164215       0.00000000       144.000000       0.00000000       0.00000000       0.00000000       0.00000000       6799.50000       13599.0000       144.000000    
          73   421.507141       881.541443       76.5422745       0.00000000       146.000000       0.00000000       0.00000000       0.00000000       0.00000000       10430.0000       20860.0000       146.000000    
          74   1031.15894       365.885742       75.5566711       0.00000000       148.000000       0.00000000       0.00000000       0.00000000       0.00000000       5746.50000       11493.0000       148.000000    
          75   1537.90417       758.291443       76.5832977       0.00000000       150.000000       0.00000000       0.00000000       0.00000000       0.00000000       7678.50000       15357.0000       150.000000    
          76   1393.56006       162.562042       76.4213562       0.00000000       152.000000       0.00000000       0.00000000       0.00000000       0.00000000       7180.00000       14360.0000       152.000000    
          77   1051.75940       557.085205       75.5309219       0.00000000       154.000000       0.00000000       0.00000000       0.00000000       0.00000000       7886.50000       15773.0000       154.000000    
          78   1262.60706       283.746368       75.1516495       0.00000000       156.000000       0.00000000       0.00000000       0.00000000       0.00000000       10239.5000       20479.0000       156.000000    
          79   205.430206       681.844360       75.1689606       0.00000000       158.000000       0.00000000       0.00000000       0.00000000       0.00000000       12368.0000       24736.0000       158.000000    
          80   602.064270       1069.98462       76.1640167       0.00000000       160.000000       0.00000000       0.00000000       0.00000000       0.00000000       5837.50000       11675.0000       160.000000    
          81   823.573792       495.738861       75.5404129       0.00000000       162.000000       0.00000000       0.00000000       0.00000000       0.00000000       7259.00000       14518.0000       162.000000    
          82   1139.30945       625.073914       74.3655396       0.00000000       164.000000       0.00000000       0.00000000       0.00000000       0.00000000       6513.00000       13026.0000       164.000000    
          83   1729.13782       973.219116       77.0335007       0.00000000       166.000000       0.00000000       0.00000000       0.00000000       0.00000000       5309.50000       10619.0000       166.000000    
          84   837.599854       255.873413       77.0141983       0.00000000       168.000000       0.00000000       0.00000000       0.00000000       0.00000000       5855.50000       11711.0000       168.000000    
          85   1155.08801       828.134521       76.5350647       0.00000000       170.000000       0.00000000       0.00000000       0.00000000       0.00000000       9180.50000       18361.0000       170.000000    
          86   1304.28137       1018.82928       76.0860138       0.00000000       172.000000       0.00000000       0.00000000       0.00000000       0.00000000       9608.50000       19217.0000       172.000000    
          87   424.656708       641.060852       77.1151123       0.00000000       174.000000       0.00000000       0.00000000       0.00000000       0.00000000       14903.0000       29806.0000       174.000000    
          88   818.658203       395.009827       75.1855011       0.00000000       176.000000       0.00000000       0.00000000       0.00000000       0.00000000       8092.50000       16185.0000       176.000000    
          89   650.163818       540.237976       75.5321579       0.00000000       178.000000       0.00000000       0.00000000       0.00000000       0.00000000       12157.0000       24314.0000       178.000000    
          90   953.603577       282.263824       77.1078720       0.00000000       180.000000       0.00000000       0.00000000       0.00000000       0.00000000       8861.50000       17723.0000       180.000000    
          91   335.776031       373.562469       76.1436157       0.00000000       182.000000       0.00000000       0.00000000       0.00000000       0.00000000       5909.50000       11819.0000       182.000000    
          92   358.315216       492.415405       74.4410934       0.00000000       184.000000       0.00000000       0.00000000       0.00000000       0.00000000       6269.00000       12538.0000       184.000000    
          93   1244.34827       680.799255       78.0828552       0.00000000       186.000000       0.00000000       0.00000000       0.00000000       0.00000000       6724.00000       13448.0000       186.000000    
          94   1696.29871       716.960815       77.8479309       0.00000000       188.000000       0.00000000       0.00000000       0.00000000       0.00000000       9679.50000       19359.0000       188.000000    
          95   1007.91376       846.997314       77.3523560       0.00000000       190.000000       0.00000000       0.00000000       0.00000000       0.00000000       4934.50000       9869.00000       190.000000    
          96   1358.61621       723.066895       77.0255051       0.00000000       192.000000       0.00000000       0.00000000       0.00000000       0.00000000       8600.00000       17200.0000       192.000000    
          97   1041.03113       693.019348       77.2334671       0.00000000       194.000000       0.00000000       0.00000000       0.00000000       0.00000000       6624.00000       13248.0000       194.000000    
          98   656.908630       884.592957       77.4070511       0.00000000       196.000000       0.00000000       0.00000000       0.00000000       0.00000000       5706.00000       11412.0000       196.000000    
          99   1157.88477       371.492615       77.2516251       0.00000000       198.000000       0.00000000       0.00000000       0.00000000       0.00000000       5820.00000       11640.0000       198.000000    
         100   390.851440       119.634247       76.7227173       0.00000000       200.000000       0.00000000       0.00000000       0.00000000       0.00000000       8827.00000       17654.0000       200.000000    
         101   519.011292       600.323669       76.8696823       0.00000000       202.000000       0.00000000       0.00000000       0.00000000       0.00000000       7318.00000       14636.0000       202.000000    
         102   220.609070       255.150314       76.0156021       0.00000000       204.000000       0.00000000       0.00000000       0.00000000       0.00000000       10397.0000       20794.0000       204.000000    
         103   463.316895       474.603516       76.7993088       0.00000000       206.000000       0.00000000       0.00000000       0.00000000       0.00000000       9083.50000       18167.0000       206.000000    
         104   1058.11035       933.531311       77.1458664       0.00000000       208.000000       0.00000000       0.00000000       0.00000000       0.00000000       7985.50000       15971.0000       208.000000    
         105   1117.38684       143.785889       77.8891373       0.00000000       210.000000       0.00000000       0.00000000       0.00000000       0.00000000       8172.50000       16345.0000       210.000000    
         106   1634.23804       832.244080       76.2534943       0.00000000       212.000000       0.00000000       0.00000000       0.00000000       0.00000000       6006.00000       12012.0000       212.000000    
         107   924.295044       733.814270       77.4620514       0.00000000       214.000000       0.00000000       0.00000000       0.00000000       0.00000000       9652.50000       19305.0000       214.000000    
         108   924.575806       99.7538910       75.4066010       0.00000000       216.000000       0.00000000       0.00000000       0.00000000       0.00000000       8673.50000       17347.0000       216.000000    
         109   1196.40747       523.271179       75.7246933       0.00000000       218.000000       0.00000000       0.00000000       0.00000000       0.00000000       10385.0000       20770.0000       218.000000    
         110   1349.64734       266.289307       76.7235565       0.00000000       220.000000       0.00000000       0.00000000       0.00000000       0.00000000       7544.50000       15089.0000       220.000000    
         111   242.896332       1094.71545       74.5609741       0.00000000       222.000000       0.00000000       0.00000000       0.00000000       0.00000000       8956.00000       17912.0000       222.000000    
         112   1632.97314       934.687927       78.4239120       0.00000000       224.000000       0.00000000       0.00000000       0.00000000       0.00000000       8782.00000       17564.0000       224.000000    
         113   1328.60754       113.129883       75.9094543       0.00000000       226.000000       0.00000000       0.00000000       0.00000000       0.00000000       10798.5000       21597.0000       226.000000    
         114   1458.78662       191.462738       76.2478638       0.00000000       227.999817       0.00000000       0.00000000       0.00000000       0.00000000       5551.00000       11102.0000       227.999817    
         115   270.644592       567.157654       78.9880142       0.00000000       230.000000       0.00000000       0.00000000       0.00000000       0.00000000       9879.00000       19758.0000       230.000000    
         116   624.376648       1053.37012       75.4115829       0.00000000       231.999695       0.00000000       0.00000000       0.00000000       0.00000000       6663.00000       13326.0000       231.999695    
         117   327.185303       857.501465       76.2828827       0.00000000       234.000000       0.00000000       0.00000000       0.00000000       0.00000000       18053.5000       36107.0000       234.000000    
         118   905.096924       927.774170       74.6020432       0.00000000       235.999863       0.00000000       0.00000000       0.00000000       0.00000000       7670.50000       15341.0000       235.999863    
         119   1032.64673       473.350983       76.1502686       0.00000000       237.999786       0.00000000       0.00000000       0.00000000       0.00000000       9697.00000       19394.0000       237.999786    
         120   729.157104       638.840759       77.4383926       0.00000000       240.000000       0.00000000       0.00000000       0.00000000       0.00000000       12020.5000       24041.0000       240.000000    
         121   555.554016       742.354736       74.5636444       0.00000000       241.999924       0.00000000       0.00000000       0.00000000       0.00000000       12556.0000       25112.0000       241.999924    
         122   577.612366       954.987122       74.7309113       0.00000000       244.000000       0.00000000       0.00000000       0.00000000       0.00000000       7298.50000       14597.0000       244.000000    
 #=======================STRUCTURE TYPE->           1 =======================
 #GRAIN NUMBER| COORDINATES: X Y Z | STRESS XX YY ZZ ZY XZ XY | GRAIN VOLUME | NUMBER OF ATOMS | VON-MISES STRESS |
 #AVERAGE VON MISES STRESS FOR THIS STRUCTURE TYPE IS   127.987526    
           1   444.394531       1047.86780       76.4440536       0.00000000       2.00000000       0.00000000       0.00000000       0.00000000       0.00000000       86078.0000       172156.000       2.00000000    
           2   396.853821       984.867432       76.2669601       0.00000000       4.00000000       0.00000000       0.00000000       0.00000000       0.00000000       62283.5000       124567.000       4.00000000    
           3   890.213257       636.670715       76.4876785       0.00000000       6.00000000       0.00000000       0.00000000       0.00000000       0.00000000       85249.0000       170498.000       6.00000000    
           4   1391.74634       613.161926       76.5791168       0.00000000       8.00000000       0.00000000       0.00000000       0.00000000       0.00000000       69426.5000       138853.000       8.00000000    
           5   495.001038       255.793228       76.9411316       0.00000000       10.0000000       0.00000000       0.00000000       0.00000000       0.00000000       41373.0000       82746.0000       10.0000000    
           6   119.882576       836.268433       75.8656845       0.00000000       12.0000000       0.00000000       0.00000000       0.00000000       0.00000000       105022.500       210045.000       12.0000000    
           7   761.791748       145.538757       76.0062637       0.00000000       14.0000000       0.00000000       0.00000000       0.00000000       0.00000000       75126.0000       150252.000       14.0000000    
           8   1612.95190       308.136230       76.6985550       0.00000000       16.0000000       0.00000000       0.00000000       0.00000000       0.00000000       80644.0000       161288.000       16.0000000    
           9   740.529236       302.911926       76.2884521       0.00000000       18.0000000       0.00000000       0.00000000       0.00000000       0.00000000       53037.5000       106075.000       18.0000000    
          10   1153.03625       716.435913       76.2839890       0.00000000       20.0000000       0.00000000       0.00000000       0.00000000       0.00000000       36428.0000       72856.0000       20.0000000    
          11   1112.21948       265.885559       76.2606583       0.00000000       22.0000000       0.00000000       0.00000000       0.00000000       0.00000000       55871.5000       111743.000       22.0000000    
          12   531.792786       360.427521       77.0313339       0.00000000       24.0000000       0.00000000       0.00000000       0.00000000       0.00000000       48427.0000       96854.0000       24.0000000    
          13   540.250305       188.025665       75.8035736       0.00000000       26.0000000       0.00000000       0.00000000       0.00000000       0.00000000       37405.5000       74811.0000       26.0000000    
          14   307.031067       525.283875       75.8265915       0.00000000       28.0000000       0.00000000       0.00000000       0.00000000       0.00000000       51319.0000       102638.000       28.0000000    
          15   1723.99231       289.472168       75.7709427       0.00000000       30.0000000       0.00000000       0.00000000       0.00000000       0.00000000       63306.0000       126612.000       30.0000000    
          16   411.900330       309.159790       76.0866776       0.00000000       32.0000000       0.00000000       0.00000000       0.00000000       0.00000000       53449.0000       106898.000       32.0000000    
          17   1290.15540       942.862854       75.9982376       0.00000000       34.0000000       0.00000000       0.00000000       0.00000000       0.00000000       72756.0000       145512.000       34.0000000    
          18   392.507324       729.919861       76.1982117       0.00000000       36.0000000       0.00000000       0.00000000       0.00000000       0.00000000       66574.0000       133148.000       36.0000000    
          19   1298.47754       612.273804       75.9064560       0.00000000       38.0000000       0.00000000       0.00000000       0.00000000       0.00000000       71832.0000       143664.000       38.0000000    
          20   1144.68848       1111.52527       76.0167465       0.00000000       40.0000000       0.00000000       0.00000000       0.00000000       0.00000000       52763.5000       105527.000       40.0000000    
          21   462.905762       911.761780       76.3739777       0.00000000       42.0000000       0.00000000       0.00000000       0.00000000       0.00000000       65594.0000       131188.000       42.0000000    
          22   1568.27051       1076.12085       76.9131775       0.00000000       44.0000000       0.00000000       0.00000000       0.00000000       0.00000000       75290.5000       150581.000       44.0000000    
          23   82.9796982       591.554260       75.9826508       0.00000000       46.0000000       0.00000000       0.00000000       0.00000000       0.00000000       53426.5000       106853.000       46.0000000    
          24   1280.28442       454.867737       75.8097229       0.00000000       48.0000000       0.00000000       0.00000000       0.00000000       0.00000000       128365.500       256731.000       48.0000000    
          25   1596.19702       587.191711       76.3883972       0.00000000       50.0000000       0.00000000       0.00000000       0.00000000       0.00000000       119591.500       239183.000       50.0000000    
          26   1420.72876       515.386536       76.4938278       0.00000000       52.0000000       0.00000000       0.00000000       0.00000000       0.00000000       65302.5000       130605.000       52.0000000    
          27   85.0952225       95.9852753       76.0539856       0.00000000       54.0000000       0.00000000       0.00000000       0.00000000       0.00000000       61643.0000       123286.000       54.0000000    
          28   218.814636       333.191925       76.3884811       0.00000000       56.0000000       0.00000000       0.00000000       0.00000000       0.00000000       42385.5000       84771.0000       56.0000000    
          29   1667.51355       836.801086       76.1575165       0.00000000       58.0000000       0.00000000       0.00000000       0.00000000       0.00000000       54390.5000       108781.000       58.0000000    
          30   1470.53906       708.683289       76.7889175       0.00000000       60.0000000       0.00000000       0.00000000       0.00000000       0.00000000       48841.0000       97682.0000       60.0000000    
          31   1180.48767       987.443176       76.2582016       0.00000000       62.0000000       0.00000000       0.00000000       0.00000000       0.00000000       66819.5000       133639.000       62.0000000    
          32   1680.50806       1041.06750       76.4157104       0.00000000       64.0000000       0.00000000       0.00000000       0.00000000       0.00000000       40117.5000       80235.0000       64.0000000    
          33   1484.07153       88.4556046       76.5547256       0.00000000       66.0000000       0.00000000       0.00000000       0.00000000       0.00000000       51038.5000       102077.000       66.0000000    
          34   606.165161       96.2671280       76.4180679       0.00000000       68.0000000       0.00000000       0.00000000       0.00000000       0.00000000       29715.0000       59430.0000       68.0000000    
          35   942.340271       1037.60449       76.3850174       0.00000000       70.0000000       0.00000000       0.00000000       0.00000000       0.00000000       53871.5000       107743.000       70.0000000    
          36   876.429199       181.581238       76.2273254       0.00000000       72.0000000       0.00000000       0.00000000       0.00000000       0.00000000       55307.5000       110615.000       72.0000000    
          37   635.616760       262.988831       76.0344086       0.00000000       74.0000000       0.00000000       0.00000000       0.00000000       0.00000000       54848.0000       109696.000       74.0000000    
          38   1375.96057       407.115387       76.1602020       0.00000000       76.0000000       0.00000000       0.00000000       0.00000000       0.00000000       63896.0000       127792.000       76.0000000    
          39   1242.67480       504.308838       76.3824387       0.00000000       78.0000000       0.00000000       0.00000000       0.00000000       0.00000000       103579.000       207158.000       78.0000000    
          40   1004.52240       1116.41211       76.7486343       0.00000000       80.0000000       0.00000000       0.00000000       0.00000000       0.00000000       44716.0000       89432.0000       80.0000000    
          41   1676.67688       152.397522       76.4203796       0.00000000       82.0000000       0.00000000       0.00000000       0.00000000       0.00000000       60352.5000       120705.000       82.0000000    
          42   1552.68384       442.327393       76.2595749       0.00000000       84.0000000       0.00000000       0.00000000       0.00000000       0.00000000       90587.5000       181175.000       84.0000000    
          43   233.527328       444.377960       75.8776245       0.00000000       86.0000000       0.00000000       0.00000000       0.00000000       0.00000000       47003.5000       94007.0000       86.0000000    
          44   856.929016       721.987305       76.6484146       0.00000000       88.0000000       0.00000000       0.00000000       0.00000000       0.00000000       102359.000       204718.000       88.0000000    
          45   686.046143       599.424927       76.1618423       0.00000000       90.0000000       0.00000000       0.00000000       0.00000000       0.00000000       68199.5000       136399.000       90.0000000    
          46   1574.09631       148.504578       76.4316101       0.00000000       92.0000000       0.00000000       0.00000000       0.00000000       0.00000000       51946.5000       103893.000       92.0000000    
          47   822.123596       1011.98676       76.1278152       0.00000000       94.0000000       0.00000000       0.00000000       0.00000000       0.00000000       62336.0000       124672.000       94.0000000    
          48   947.188171       463.780579       75.9950714       0.00000000       96.0000000       0.00000000       0.00000000       0.00000000       0.00000000       79059.5000       158119.000       96.0000000    
          49   1443.80127       769.648804       76.4683609       0.00000000       98.0000000       0.00000000       0.00000000       0.00000000       0.00000000       78230.0000       156460.000       98.0000000    
          50   1085.12537       455.403809       76.7008743       0.00000000       100.000000       0.00000000       0.00000000       0.00000000       0.00000000       45348.0000       90696.0000       100.000000    
          51   653.689392       930.113892       75.8601074       0.00000000       102.000000       0.00000000       0.00000000       0.00000000       0.00000000       41741.0000       83482.0000       102.000000    
          52   143.158783       224.597015       76.1072998       0.00000000       104.000000       0.00000000       0.00000000       0.00000000       0.00000000       70362.5000       140725.000       104.000000    
          53   774.880676       812.800903       76.9540558       0.00000000       106.000000       0.00000000       0.00000000       0.00000000       0.00000000       98496.0000       196992.000       106.000000    
          54   634.729675       409.310059       76.3772278       0.00000000       108.000000       0.00000000       0.00000000       0.00000000       0.00000000       68207.0000       136414.000       108.000000    
          55   1717.47607       1127.99329       76.6875610       0.00000000       110.000000       0.00000000       0.00000000       0.00000000       0.00000000       54671.5000       109343.000       110.000000    
          56   739.167236       1097.55920       75.9720917       0.00000000       112.000000       0.00000000       0.00000000       0.00000000       0.00000000       58230.0000       116460.000       112.000000    
          57   525.175720       102.092491       76.3392258       0.00000000       114.000000       0.00000000       0.00000000       0.00000000       0.00000000       35501.5000       71003.0000       114.000000    
          58   890.639282       832.637634       77.1814423       0.00000000       116.000000       0.00000000       0.00000000       0.00000000       0.00000000       36555.0000       73110.0000       116.000000    
          59   1606.07751       520.685059       76.6173553       0.00000000       118.000000       0.00000000       0.00000000       0.00000000       0.00000000       68505.0000       137010.000       118.000000    
          60   1425.48218       856.883972       76.7610474       0.00000000       120.000000       0.00000000       0.00000000       0.00000000       0.00000000       66005.5000       132011.000       120.000000    
          61   1301.79871       825.056580       76.5123672       0.00000000       122.000000       0.00000000       0.00000000       0.00000000       0.00000000       49996.5000       99993.0000       122.000000    
          62   1421.39685       1029.76160       76.6921997       0.00000000       124.000000       0.00000000       0.00000000       0.00000000       0.00000000       94477.5000       188955.000       124.000000    
          63   652.071594       137.138092       75.8928528       0.00000000       126.000000       0.00000000       0.00000000       0.00000000       0.00000000       46166.5000       92333.0000       126.000000    
          64   407.984528       297.118439       76.9828568       0.00000000       128.000000       0.00000000       0.00000000       0.00000000       0.00000000       54783.5000       109567.000       128.000000    
          65   701.431152       972.748779       75.7952347       0.00000000       130.000000       0.00000000       0.00000000       0.00000000       0.00000000       54727.0000       109454.000       130.000000    
          66   141.681824       511.697052       75.9762955       0.00000000       132.000000       0.00000000       0.00000000       0.00000000       0.00000000       58069.0000       116138.000       132.000000    
          67   1486.65894       327.258972       76.1874619       0.00000000       134.000000       0.00000000       0.00000000       0.00000000       0.00000000       46983.5000       93967.0000       134.000000    
          68   117.179680       381.643555       76.1057816       0.00000000       136.000000       0.00000000       0.00000000       0.00000000       0.00000000       55732.5000       111465.000       136.000000    
          69   146.824600       990.645569       75.7856827       0.00000000       138.000000       0.00000000       0.00000000       0.00000000       0.00000000       109620.000       219240.000       138.000000    
          70   289.798157       230.539658       76.3881378       0.00000000       140.000000       0.00000000       0.00000000       0.00000000       0.00000000       76690.5000       153381.000       140.000000    
          71   1526.03235       917.861694       77.2477112       0.00000000       142.000000       0.00000000       0.00000000       0.00000000       0.00000000       65150.0000       130300.000       142.000000    
          72   1070.62512       1028.61133       76.4054871       0.00000000       144.000000       0.00000000       0.00000000       0.00000000       0.00000000       38092.0000       76184.0000       144.000000    
          73   165.992554       965.446167       76.5094376       0.00000000       146.000000       0.00000000       0.00000000       0.00000000       0.00000000       80501.5000       161003.000       146.000000    
          74   1034.48083       358.585663       76.3189621       0.00000000       148.000000       0.00000000       0.00000000       0.00000000       0.00000000       46053.0000       92106.0000       148.000000    
          75   1554.79077       757.859802       76.6205063       0.00000000       150.000000       0.00000000       0.00000000       0.00000000       0.00000000       55148.0000       110296.000       150.000000    
          76   1581.78674       109.753906       76.2178192       0.00000000       152.000000       0.00000000       0.00000000       0.00000000       0.00000000       62243.0000       124486.000       152.000000    
          77   1059.83789       559.560669       76.5213242       0.00000000       154.000000       0.00000000       0.00000000       0.00000000       0.00000000       65387.5000       130775.000       154.000000    
          78   1253.43689       297.229706       76.5182877       0.00000000       156.000000       0.00000000       0.00000000       0.00000000       0.00000000       89147.5000       178295.000       156.000000    
          79   215.804535       690.507812       76.4879913       0.00000000       158.138245       0.00000000       0.00000000       0.00000000       0.00000000       114070.500       228141.000       158.138245    
          80   609.072937       1073.44409       76.3089066       0.00000000       160.000000       0.00000000       0.00000000       0.00000000       0.00000000       67320.5000       134641.000       160.000000    
          81   832.570862       516.483154       76.7392578       0.00000000       162.000000       0.00000000       0.00000000       0.00000000       0.00000000       60217.0000       120434.000       162.000000    
          82   1152.16443       617.714417       76.8493805       0.00000000       164.000000       0.00000000       0.00000000       0.00000000       0.00000000       52781.5000       105563.000       164.000000    
          83   1730.09814       958.318909       76.3033905       0.00000000       166.000000       0.00000000       0.00000000       0.00000000       0.00000000       32886.5000       65773.0000       166.000000    
          84   851.502380       241.330139       76.3635178       0.00000000       168.000000       0.00000000       0.00000000       0.00000000       0.00000000       60974.0000       121948.000       168.000000    
          85   1159.62866       832.185852       76.1669235       0.00000000       170.000000       0.00000000       0.00000000       0.00000000       0.00000000       71310.5000       142621.000       170.000000    
          86   1297.59326       1110.23633       76.2893066       0.00000000       172.000000       0.00000000       0.00000000       0.00000000       0.00000000       88671.5000       177343.000       172.000000    
          87   423.139587       636.757019       76.3504105       0.00000000       174.727615       0.00000000       0.00000000       0.00000000       0.00000000       151561.000       303122.000       174.727615    
          88   808.551758       394.835144       76.1532745       0.00000000       176.000000       0.00000000       0.00000000       0.00000000       0.00000000       75202.0000       150404.000       176.000000    
          89   643.217346       541.296692       76.5528336       0.00000000       177.734589       0.00000000       0.00000000       0.00000000       0.00000000       108676.000       217352.000       177.734589    
          90   961.779541       277.524658       76.2057648       0.00000000       180.000000       0.00000000       0.00000000       0.00000000       0.00000000       76087.0000       152174.000       180.000000    
          91   332.620087       376.173370       76.4753265       0.00000000       182.000000       0.00000000       0.00000000       0.00000000       0.00000000       49031.5000       98063.0000       182.000000    
          92   355.428894       492.544281       76.5542221       0.00000000       184.000000       0.00000000       0.00000000       0.00000000       0.00000000       48960.5000       97921.0000       184.000000    
          93   1260.73462       691.791748       75.7901993       0.00000000       186.000000       0.00000000       0.00000000       0.00000000       0.00000000       67302.5000       134605.000       186.000000    
          94   1693.34485       709.850769       76.6315002       0.00000000       188.000000       0.00000000       0.00000000       0.00000000       0.00000000       71161.0000       142322.000       188.000000    
          95   1009.12256       833.569092       77.0575790       0.00000000       190.000000       0.00000000       0.00000000       0.00000000       0.00000000       51392.0000       102784.000       190.000000    
          96   1364.35425       732.226074       75.4209900       0.00000000       192.000000       0.00000000       0.00000000       0.00000000       0.00000000       43769.5000       87539.0000       192.000000    
          97   1039.66577       708.916260       77.0576859       0.00000000       194.000000       0.00000000       0.00000000       0.00000000       0.00000000       65880.0000       131760.000       194.000000    
          98   664.300964       863.168335       76.4535141       0.00000000       196.000000       0.00000000       0.00000000       0.00000000       0.00000000       56190.0000       112380.000       196.000000    
          99   1162.76831       378.365387       76.3856964       0.00000000       198.000000       0.00000000       0.00000000       0.00000000       0.00000000       51163.0000       102326.000       198.000000    
         100   395.337677       121.490417       76.5680542       0.00000000       200.000000       0.00000000       0.00000000       0.00000000       0.00000000       91219.5000       182439.000       200.000000    
         101   517.515503       746.421753       76.3906479       0.00000000       202.000000       0.00000000       0.00000000       0.00000000       0.00000000       64532.0000       129064.000       202.000000    
         102   212.079147       151.675781       76.2471237       0.00000000       204.000000       0.00000000       0.00000000       0.00000000       0.00000000       89865.5000       179731.000       204.000000    
         103   478.083374       464.587830       77.2247925       0.00000000       206.072769       0.00000000       0.00000000       0.00000000       0.00000000       84519.5000       169039.000       206.072769    
         104   1051.39771       928.003662       76.8498840       0.00000000       208.000000       0.00000000       0.00000000       0.00000000       0.00000000       53261.0000       106522.000       208.000000    
         105   1117.28979       149.498062       76.3927689       0.00000000       209.483444       0.00000000       0.00000000       0.00000000       0.00000000       107711.000       215422.000       209.483444    
         106   1629.09692       821.650635       76.7767868       0.00000000       212.000000       0.00000000       0.00000000       0.00000000       0.00000000       44587.5000       89175.0000       212.000000    
         107   920.180176       739.795715       76.2565842       0.00000000       214.000000       0.00000000       0.00000000       0.00000000       0.00000000       49549.5000       99099.0000       214.000000    
         108   926.289307       123.626022       76.4599915       0.00000000       216.000000       0.00000000       0.00000000       0.00000000       0.00000000       93126.5000       186253.000       216.000000    
         109   1193.32898       422.684265       76.4451675       0.00000000       218.000000       0.00000000       0.00000000       0.00000000       0.00000000       73603.5000       147207.000       218.000000    
         110   1366.44470       268.404968       76.4525299       0.00000000       220.000000       0.00000000       0.00000000       0.00000000       0.00000000       66288.0000       132576.000       220.000000    
         111   249.073181       1085.98584       75.9587784       0.00000000       222.639053       0.00000000       0.00000000       0.00000000       0.00000000       111060.500       222121.000       222.639053    
         112   1634.81812       936.391052       75.9265594       0.00000000       224.000000       0.00000000       0.00000000       0.00000000       0.00000000       45208.0000       90416.0000       224.000000    
         113   1317.37793       105.832748       76.4088974       0.00000000       225.320801       0.00000000       0.00000000       0.00000000       0.00000000       112410.000       224820.000       225.320801    
         114   1468.54871       208.350433       76.6350861       0.00000000       228.000000       0.00000000       0.00000000       0.00000000       0.00000000       61563.5000       123127.000       228.000000    
         115   272.055817       568.804871       75.9164200       0.00000000       230.000000       0.00000000       0.00000000       0.00000000       0.00000000       50298.0000       100596.000       230.000000    
         116   865.336853       1053.03162       76.2106323       0.00000000       232.000000       0.00000000       0.00000000       0.00000000       0.00000000       54245.0000       108490.000       232.000000    
         117   331.342194       858.593933       76.3370132       0.00000000       232.811981       0.00000000       0.00000000       0.00000000       0.00000000       176599.000       353198.000       232.811981    
         118   905.303955       929.229065       76.8507080       0.00000000       236.000000       0.00000000       0.00000000       0.00000000       0.00000000       49136.5000       98273.0000       236.000000    
         119   1035.83240       434.176666       76.6029587       0.00000000       238.068268       0.00000000       0.00000000       0.00000000       0.00000000       72985.5000       145971.000       238.068268    
         120   738.921448       632.701050       76.3180542       0.00000000       240.000000       0.00000000       0.00000000       0.00000000       0.00000000       90963.5000       181927.000       240.000000    
         121   572.464966       750.437256       76.6018829       0.00000000       240.884354       0.00000000       0.00000000       0.00000000       0.00000000       156789.000       313578.000       240.884354    
         122   564.475098       944.823059       76.8459778       0.00000000       244.000000       0.00000000       0.00000000       0.00000000       0.00000000       55982.0000       111964.000       244.000000    
 #=======================STRUCTURE TYPE->           2 =======================
 #GRAIN NUMBER| COORDINATES: X Y Z | STRESS XX YY ZZ ZY XZ XY | GRAIN VOLUME | NUMBER OF ATOMS | VON-MISES STRESS |
 #AVERAGE VON MISES STRESS FOR THIS STRUCTURE TYPE IS   126.735970    
           1   441.114105       1069.32349       68.9295578       0.00000000       2.00000000       0.00000000       0.00000000       0.00000000       0.00000000       92.5000000       185.000000       2.00000000    
           2   393.009857       888.370544       84.9068222       0.00000000       4.00000000       0.00000000       0.00000000       0.00000000       0.00000000       116.000000       232.000000       4.00000000    
           3   849.182007       676.206604       83.1729507       0.00000000       6.00000000       0.00000000       0.00000000       0.00000000       0.00000000       98.0000000       196.000000       6.00000000    
           4   1393.68701       629.143494       57.3501892       0.00000000       8.00000000       0.00000000       0.00000000       0.00000000       0.00000000       125.500000       251.000000       8.00000000    
           5   502.182617       248.055618       82.0088120       0.00000000       10.0000000       0.00000000       0.00000000       0.00000000       0.00000000       69.0000000       138.000000       10.0000000    
           6   104.293571       840.468933       76.4259109       0.00000000       12.0000000       0.00000000       0.00000000       0.00000000       0.00000000       356.000000       712.000000       12.0000000    
           7   764.366638       130.636368       74.8622589       0.00000000       14.0000000       0.00000000       0.00000000       0.00000000       0.00000000       82.5000000       165.000000       14.0000000    
           8   1657.49097       354.037750       73.2853241       0.00000000       16.0000000       0.00000000       0.00000000       0.00000000       0.00000000       358.500000       717.000000       16.0000000    
           9   756.115967       303.256165       86.2784805       0.00000000       18.0000000       0.00000000       0.00000000       0.00000000       0.00000000       21.0000000       42.0000000       18.0000000    
          10   1135.14270       695.480286       72.7409668       0.00000000       20.0000000       0.00000000       0.00000000       0.00000000       0.00000000       23.0000000       46.0000000       20.0000000    
          11   1084.45789       242.463135       81.8220367       0.00000000       22.0000000       0.00000000       0.00000000       0.00000000       0.00000000       49.5000000       99.0000000       22.0000000    
          12   526.779541       370.509491       77.3895035       0.00000000       24.0000000       0.00000000       0.00000000       0.00000000       0.00000000       92.5000000       185.000000       24.0000000    
          13   504.844177       180.373383       71.8296204       0.00000000       26.0000000       0.00000000       0.00000000       0.00000000       0.00000000       112.500000       225.000000       26.0000000    
          14   322.383240       817.788208       77.5532837       0.00000000       28.0000000       0.00000000       0.00000000       0.00000000       0.00000000       131.000000       262.000000       28.0000000    
          15   1740.46033       346.410156       89.7565079       0.00000000       30.0000000       0.00000000       0.00000000       0.00000000       0.00000000       78.0000000       156.000000       30.0000000    
          16   1056.42578       343.509125       72.6952362       0.00000000       32.0000000       0.00000000       0.00000000       0.00000000       0.00000000       138.500000       277.000000       32.0000000    
          17   1326.00574       948.766907       78.9523392       0.00000000       34.0000000       0.00000000       0.00000000       0.00000000       0.00000000       362.500000       725.000000       34.0000000    
          18   764.740479       729.936096       72.4332809       0.00000000       36.0000000       0.00000000       0.00000000       0.00000000       0.00000000       101.000000       202.000000       36.0000000    
          19   766.521240       660.332581       83.6294479       0.00000000       38.0000000       0.00000000       0.00000000       0.00000000       0.00000000       53.5000000       107.000000       38.0000000    
          20   1152.31104       1099.16553       72.9899139       0.00000000       40.0000000       0.00000000       0.00000000       0.00000000       0.00000000       100.000000       200.000000       40.0000000    
          21   509.449341       902.543457       83.0567780       0.00000000       42.0000000       0.00000000       0.00000000       0.00000000       0.00000000       102.000000       204.000000       42.0000000    
          22   1570.11719       1088.48596       64.3903961       0.00000000       44.0000000       0.00000000       0.00000000       0.00000000       0.00000000       147.000000       294.000000       44.0000000    
          23   63.4797859       532.334351       29.5098152       0.00000000       46.0000000       0.00000000       0.00000000       0.00000000       0.00000000       15.0000000       30.0000000       46.0000000    
          24   1160.66699       445.239502       75.4838333       0.00000000       48.0000000       0.00000000       0.00000000       0.00000000       0.00000000       194.000000       388.000000       48.0000000    
          25   1519.86609       625.838318       74.4819946       0.00000000       50.0000000       0.00000000       0.00000000       0.00000000       0.00000000       91.5000000       183.000000       50.0000000    
          26   1460.46545       487.020020       71.4676056       0.00000000       52.0000000       0.00000000       0.00000000       0.00000000       0.00000000       49.0000000       98.0000000       52.0000000    
          27   67.1801987       124.353920       83.2401962       0.00000000       54.0000000       0.00000000       0.00000000       0.00000000       0.00000000       186.500000       373.000000       54.0000000    
          28   200.208008       317.940369       66.3218079       0.00000000       56.0000000       0.00000000       0.00000000       0.00000000       0.00000000       88.0000000       176.000000       56.0000000    
          29   1728.55920       884.676941       60.5487862       0.00000000       58.0000000       0.00000000       0.00000000       0.00000000       0.00000000       35.5000000       71.0000000       58.0000000    
          30   1432.69690       730.966309       73.0094604       0.00000000       60.0000000       0.00000000       0.00000000       0.00000000       0.00000000       317.000000       634.000000       60.0000000    
          31   1195.81128       1043.96472       72.7657013       0.00000000       62.0000000       0.00000000       0.00000000       0.00000000       0.00000000       79.5000000       159.000000       62.0000000    
          32   1657.52710       1000.99408       70.2701340       0.00000000       64.0000000       0.00000000       0.00000000       0.00000000       0.00000000       7.50000000       15.0000000       64.0000000    
          33   1505.88306       46.7702408       87.2905807       0.00000000       66.0000000       0.00000000       0.00000000       0.00000000       0.00000000       39.0000000       78.0000000       66.0000000    
          34   582.113159       68.6485138       74.9625015       0.00000000       68.0000000       0.00000000       0.00000000       0.00000000       0.00000000       108.500000       217.000000       68.0000000    
          35   920.895813       1068.96692       82.3455582       0.00000000       70.0000000       0.00000000       0.00000000       0.00000000       0.00000000       90.0000000       180.000000       70.0000000    
          36   728.900391       178.613220       49.0491562       0.00000000       72.0000000       0.00000000       0.00000000       0.00000000       0.00000000       92.0000000       184.000000       72.0000000    
          37   684.090759       282.798065       77.5415497       0.00000000       74.0000000       0.00000000       0.00000000       0.00000000       0.00000000       192.500000       385.000000       74.0000000    
          38   1365.58118       388.597260       84.5424271       0.00000000       76.0000000       0.00000000       0.00000000       0.00000000       0.00000000       63.5000000       127.000000       76.0000000    
          39   1224.00244       553.572083       78.4462738       0.00000000       78.0000000       0.00000000       0.00000000       0.00000000       0.00000000       196.000000       392.000000       78.0000000    
          40   1064.30225       1114.53564       74.7614670       0.00000000       80.0000000       0.00000000       0.00000000       0.00000000       0.00000000       126.000000       252.000000       80.0000000    
          41   1692.46606       148.755600       63.8183365       0.00000000       82.0000000       0.00000000       0.00000000       0.00000000       0.00000000       164.000000       328.000000       82.0000000    
          42   1525.55103       405.998352       72.7512665       0.00000000       84.0000000       0.00000000       0.00000000       0.00000000       0.00000000       97.0000000       194.000000       84.0000000    
          43   216.904465       454.296783       76.6279068       0.00000000       86.0000000       0.00000000       0.00000000       0.00000000       0.00000000       112.500000       225.000000       86.0000000    
          44   823.814636       1019.73035       77.6252365       0.00000000       88.0000000       0.00000000       0.00000000       0.00000000       0.00000000       233.500000       467.000000       88.0000000    
          45   715.077637       235.012436       87.6876144       0.00000000       90.0000000       0.00000000       0.00000000       0.00000000       0.00000000       25.0000000       50.0000000       90.0000000    
          46   1590.72107       182.711563       76.1817245       0.00000000       92.0000000       0.00000000       0.00000000       0.00000000       0.00000000       136.500000       273.000000       92.0000000    
          47   832.780151       966.973511       87.1312027       0.00000000       94.0000000       0.00000000       0.00000000       0.00000000       0.00000000       133.000000       266.000000       94.0000000    
          48   968.837891       467.551514       78.3959274       0.00000000       96.0000000       0.00000000       0.00000000       0.00000000       0.00000000       77.5000000       155.000000       96.0000000    
          49   1483.11304       711.283875       75.6439362       0.00000000       98.0000000       0.00000000       0.00000000       0.00000000       0.00000000       64.5000000       129.000000       98.0000000    
          50   1051.46765       463.405396       73.2767563       0.00000000       100.000000       0.00000000       0.00000000       0.00000000       0.00000000       147.500000       295.000000       100.000000    
          51   164.062057       968.656372       74.4552994       0.00000000       102.000000       0.00000000       0.00000000       0.00000000       0.00000000       7.50000000       15.0000000       102.000000    
          52   154.557709       221.652832       80.8762283       0.00000000       104.000000       0.00000000       0.00000000       0.00000000       0.00000000       52.0000000       104.000000       104.000000    
          53   771.693176       801.702454       83.6758041       0.00000000       106.000000       0.00000000       0.00000000       0.00000000       0.00000000       67.0000000       134.000000       106.000000    
          54   628.384583       435.162354       83.0525894       0.00000000       108.000000       0.00000000       0.00000000       0.00000000       0.00000000       113.000000       226.000000       108.000000    
          55   1719.55127       1100.29565       94.2166977       0.00000000       110.000000       0.00000000       0.00000000       0.00000000       0.00000000       11.5000000       23.0000000       110.000000    
          56   731.993042       1096.59119       69.7928467       0.00000000       112.000000       0.00000000       0.00000000       0.00000000       0.00000000       431.000000       862.000000       112.000000    
          57   490.737122       101.614014       76.1651077       0.00000000       114.000000       0.00000000       0.00000000       0.00000000       0.00000000       67.0000000       134.000000       114.000000    
          58   857.305298       820.643677       76.3111954       0.00000000       116.000000       0.00000000       0.00000000       0.00000000       0.00000000       64.0000000       128.000000       116.000000    
          59   1557.81470       216.960632       57.8274994       0.00000000       118.000000       0.00000000       0.00000000       0.00000000       0.00000000       76.5000000       153.000000       118.000000    
          60   1410.76917       815.026550       84.5216446       0.00000000       120.000000       0.00000000       0.00000000       0.00000000       0.00000000       102.500000       205.000000       120.000000    
          61   1278.12842       840.291748       61.4169235       0.00000000       122.000000       0.00000000       0.00000000       0.00000000       0.00000000       76.5000000       153.000000       122.000000    
          62   1383.58118       988.343262       74.6771851       0.00000000       124.000000       0.00000000       0.00000000       0.00000000       0.00000000       61.5000000       123.000000       124.000000    
          63   688.040466       146.059799       88.4117279       0.00000000       126.000000       0.00000000       0.00000000       0.00000000       0.00000000       58.0000000       116.000000       126.000000    
          64   402.568634       329.159210       69.5074997       0.00000000       128.000000       0.00000000       0.00000000       0.00000000       0.00000000       127.000000       254.000000       128.000000    
          65   695.168457       1019.84851       66.5247192       0.00000000       130.000000       0.00000000       0.00000000       0.00000000       0.00000000       87.5000000       175.000000       130.000000    
          66   124.275833       517.023926       87.8779602       0.00000000       132.000000       0.00000000       0.00000000       0.00000000       0.00000000       245.500000       491.000000       132.000000    
          67   1523.35681       352.736816       85.8502197       0.00000000       134.000000       0.00000000       0.00000000       0.00000000       0.00000000       52.5000000       105.000000       134.000000    
          68   115.945709       397.812134       67.2573471       0.00000000       136.000000       0.00000000       0.00000000       0.00000000       0.00000000       123.000000       246.000000       136.000000    
          69   167.517853       1026.66687       76.2619934       0.00000000       138.000000       0.00000000       0.00000000       0.00000000       0.00000000       316.500000       633.000000       138.000000    
          70   332.139862       229.279037       83.6246796       0.00000000       140.000000       0.00000000       0.00000000       0.00000000       0.00000000       79.5000000       159.000000       140.000000    
          71   1546.87842       941.354187       58.6975784       0.00000000       142.000000       0.00000000       0.00000000       0.00000000       0.00000000       86.0000000       172.000000       142.000000    
          72   1068.82800       1051.00037       84.0640945       0.00000000       144.000000       0.00000000       0.00000000       0.00000000       0.00000000       111.500000       223.000000       144.000000    
          73   162.739655       1040.70300       75.2290878       0.00000000       146.000000       0.00000000       0.00000000       0.00000000       0.00000000       408.000000       816.000000       146.000000    
          74   1018.12201       326.438324       63.2212868       0.00000000       148.000000       0.00000000       0.00000000       0.00000000       0.00000000       60.0000000       120.000000       148.000000    
          75   1577.70520       751.666748       34.4939537       0.00000000       150.000000       0.00000000       0.00000000       0.00000000       0.00000000       16.0000000       32.0000000       150.000000    
          76   1372.03821       112.103935       76.0041428       0.00000000       152.000000       0.00000000       0.00000000       0.00000000       0.00000000       118.500000       237.000000       152.000000    
          77   1101.65308       562.334229       71.0555344       0.00000000       154.000000       0.00000000       0.00000000       0.00000000       0.00000000       79.0000000       158.000000       154.000000    
          78   1223.02466       359.515045       32.8449821       0.00000000       156.000000       0.00000000       0.00000000       0.00000000       0.00000000       90.0000000       180.000000       156.000000    
          79   152.211563       637.296631       72.5524445       0.00000000       158.000000       0.00000000       0.00000000       0.00000000       0.00000000       296.500000       593.000000       158.000000    
          80   644.940613       1068.72742       46.5014458       0.00000000       160.000000       0.00000000       0.00000000       0.00000000       0.00000000       279.000000       558.000000       160.000000    
          81   830.620911       516.006348       76.9091492       0.00000000       162.000000       0.00000000       0.00000000       0.00000000       0.00000000       60.0000000       120.000000       162.000000    
          82   1152.17468       635.390381       72.5635452       0.00000000       164.000000       0.00000000       0.00000000       0.00000000       0.00000000       251.000000       502.000000       164.000000    
          83   1706.64990       982.800781       47.8253975       0.00000000       166.000000       0.00000000       0.00000000       0.00000000       0.00000000       3.00000000       6.00000000       166.000000    
          84   873.061035       280.542999       64.9541626       0.00000000       168.000000       0.00000000       0.00000000       0.00000000       0.00000000       45.0000000       90.0000000       168.000000    
          85   1157.32983       851.048035       78.6999130       0.00000000       170.000000       0.00000000       0.00000000       0.00000000       0.00000000       33.5000000       67.0000000       170.000000    
          86   1302.03064       923.357727       70.7691574       0.00000000       172.000000       0.00000000       0.00000000       0.00000000       0.00000000       136.500000       273.000000       172.000000    
          87   404.962860       691.149414       80.9345245       0.00000000       174.000000       0.00000000       0.00000000       0.00000000       0.00000000       171.000000       342.000000       174.000000    
          88   789.658813       412.289581       71.1517105       0.00000000       176.000000       0.00000000       0.00000000       0.00000000       0.00000000       23.0000000       46.0000000       176.000000    
          89   551.586487       587.832581       67.3682404       0.00000000       178.000000       0.00000000       0.00000000       0.00000000       0.00000000       221.500000       443.000000       178.000000    
          90   964.868225       262.639648       81.1800079       0.00000000       180.000000       0.00000000       0.00000000       0.00000000       0.00000000       196.000000       392.000000       180.000000    
          91   374.966827       372.472473       70.9873810       0.00000000       182.000000       0.00000000       0.00000000       0.00000000       0.00000000       121.000000       242.000000       182.000000    
          92   382.695923       497.758911       70.6612625       0.00000000       184.000000       0.00000000       0.00000000       0.00000000       0.00000000       84.5000000       169.000000       184.000000    
          93   1228.78894       632.607666       81.3991928       0.00000000       186.000000       0.00000000       0.00000000       0.00000000       0.00000000       261.000000       522.000000       186.000000    
          94   1647.76599       686.429077       67.8180847       0.00000000       188.000000       0.00000000       0.00000000       0.00000000       0.00000000       9.50000000       19.0000000       188.000000    
          95   1040.15662       846.882202       77.0756607       0.00000000       190.000000       0.00000000       0.00000000       0.00000000       0.00000000       100.500000       201.000000       190.000000    
          96   1405.68347       766.462402       83.5981598       0.00000000       192.000000       0.00000000       0.00000000       0.00000000       0.00000000       235.500000       471.000000       192.000000    
          97   1064.76501       749.874268       64.0152664       0.00000000       194.000000       0.00000000       0.00000000       0.00000000       0.00000000       93.0000000       186.000000       194.000000    
          98   650.732910       861.529114       91.8702087       0.00000000       196.000000       0.00000000       0.00000000       0.00000000       0.00000000       169.500000       339.000000       196.000000    
          99   1197.09558       368.538757       87.1229782       0.00000000       198.000000       0.00000000       0.00000000       0.00000000       0.00000000       221.000000       442.000000       198.000000    
         100   421.676849       169.434982       88.9943924       0.00000000       200.000000       0.00000000       0.00000000       0.00000000       0.00000000       144.500000       289.000000       200.000000    
         101   534.413452       959.626892       72.3623047       0.00000000       202.000000       0.00000000       0.00000000       0.00000000       0.00000000       64.5000000       129.000000       202.000000    
         102   158.366974       228.620605       70.6028290       0.00000000       204.000000       0.00000000       0.00000000       0.00000000       0.00000000       65.0000000       130.000000       204.000000    
         103   450.719727       458.496002       73.0429382       0.00000000       206.000000       0.00000000       0.00000000       0.00000000       0.00000000       319.500000       639.000000       206.000000    
         104   1044.13464       892.945740       62.7564812       0.00000000       208.000000       0.00000000       0.00000000       0.00000000       0.00000000       63.0000000       126.000000       208.000000    
         105   1165.85156       150.892044       68.1173019       0.00000000       210.000000       0.00000000       0.00000000       0.00000000       0.00000000       99.5000000       199.000000       210.000000    
         106   1570.93457       835.481934       53.8083305       0.00000000       212.000000       0.00000000       0.00000000       0.00000000       0.00000000       142.500000       285.000000       212.000000    
         107   956.268799       732.231262       63.5971107       0.00000000       214.000000       0.00000000       0.00000000       0.00000000       0.00000000       28.5000000       57.0000000       214.000000    
         108   966.384949       124.145912       65.3487015       0.00000000       216.000000       0.00000000       0.00000000       0.00000000       0.00000000       81.5000000       163.000000       216.000000    
         109   1172.00317       69.1475983       75.1328583       0.00000000       218.000000       0.00000000       0.00000000       0.00000000       0.00000000       43.0000000       86.0000000       218.000000    
         110   1365.69519       282.688538       65.3071289       0.00000000       220.000000       0.00000000       0.00000000       0.00000000       0.00000000       45.5000000       91.0000000       220.000000    
         111   206.860535       1096.07825       81.2154541       0.00000000       222.000000       0.00000000       0.00000000       0.00000000       0.00000000       282.000000       564.000000       222.000000    
         112   1594.29163       960.228577       82.4910126       0.00000000       224.000000       0.00000000       0.00000000       0.00000000       0.00000000       232.000000       464.000000       224.000000    
         113   1307.27295       77.5348663       86.7380066       0.00000000       226.000000       0.00000000       0.00000000       0.00000000       0.00000000       124.500000       249.000000       226.000000    
         114   1416.95630       173.554794       106.525589       0.00000000       228.000000       0.00000000       0.00000000       0.00000000       0.00000000       306.000000       612.000000       228.000000    
         115   284.230957       536.474182       92.8008347       0.00000000       230.000000       0.00000000       0.00000000       0.00000000       0.00000000       40.5000000       81.0000000       230.000000    
         116   439.210785       1018.05499       69.4376144       0.00000000       232.000000       0.00000000       0.00000000       0.00000000       0.00000000       97.0000000       194.000000       232.000000    
         117   272.412781       815.876160       68.2533569       0.00000000       234.000000       0.00000000       0.00000000       0.00000000       0.00000000       290.500000       581.000000       234.000000    
         118   874.144592       950.054321       54.1782951       0.00000000       236.000000       0.00000000       0.00000000       0.00000000       0.00000000       61.0000000       122.000000       236.000000    
         119   1078.70947       292.871429       84.8597412       0.00000000       238.000000       0.00000000       0.00000000       0.00000000       0.00000000       47.0000000       94.0000000       238.000000    
         120   749.333191       659.958130       82.8145065       0.00000000       240.000000       0.00000000       0.00000000       0.00000000       0.00000000       210.000000       420.000000       240.000000    
         121   558.221985       759.238831       85.3801956       0.00000000       242.000000       0.00000000       0.00000000       0.00000000       0.00000000       41.0000000       82.0000000       242.000000    
         122   581.866272       965.272522       60.2457161       0.00000000       244.000000       0.00000000       0.00000000       0.00000000       0.00000000       202.500000       405.000000       244.000000    
 #=======================STRUCTURE TYPES:FCC+HCP=======================
 #GRAIN NUMBER| COORDINATES: X Y Z | STRESS XX YY ZZ ZY XZ XY | GRAIN VOLUME | NUMBER OF ATOMS | VON-MISES STRESS |
 #AVERAGE VON MISES STRESS FOR THIS STRUCTURE TYPE IS   127.985252    
           1   444.391022       1047.89075       76.4359818       0.00000000       2.00000000       0.00000000       0.00000000       0.00000000       0.00000000       86170.5000       172341.000       2.00000000    
           2   396.846680       984.688110       76.2830124       0.00000000       4.00000000       0.00000000       0.00000000       0.00000000       0.00000000       62399.5000       124799.000       4.00000000    
           3   890.166138       636.716125       76.4953537       0.00000000       6.00000000       0.00000000       0.00000000       0.00000000       0.00000000       85347.0000       170694.000       6.00000000    
           4   1391.74988       613.190735       76.5444183       0.00000000       8.00000000       0.00000000       0.00000000       0.00000000       0.00000000       69552.0000       139104.000       8.00000000    
           5   495.012970       255.780350       76.9495697       0.00000000       10.0000000       0.00000000       0.00000000       0.00000000       0.00000000       41442.0000       82884.0000       10.0000000    
           6   119.829918       836.282593       75.8675690       0.00000000       12.0000000       0.00000000       0.00000000       0.00000000       0.00000000       105378.500       210757.000       12.0000000    
           7   761.794556       145.522415       76.0050049       0.00000000       14.0000000       0.00000000       0.00000000       0.00000000       0.00000000       75208.5000       150417.000       14.0000000    
           8   1613.14905       308.339386       76.6834488       0.00000000       16.0000000       0.00000000       0.00000000       0.00000000       0.00000000       81002.5000       162005.000       16.0000000    
           9   740.535461       302.912048       76.2924042       0.00000000       18.0000000       0.00000000       0.00000000       0.00000000       0.00000000       53058.5000       106117.000       18.0000000    
          10   1153.02490       716.422729       76.2817535       0.00000000       20.0000000       0.00000000       0.00000000       0.00000000       0.00000000       36451.0000       72902.0000       20.0000000    
          11   1112.19482       265.864838       76.2655792       0.00000000       22.0000000       0.00000000       0.00000000       0.00000000       0.00000000       55921.0000       111842.000       22.0000000    
          12   531.783203       360.446747       77.0320129       0.00000000       24.0000000       0.00000000       0.00000000       0.00000000       0.00000000       48519.5000       97039.0000       24.0000000    
          13   540.144104       188.002716       75.7916565       0.00000000       26.0000000       0.00000000       0.00000000       0.00000000       0.00000000       37518.0000       75036.0000       26.0000000    
          14   307.070160       526.028625       75.8309937       0.00000000       28.0000000       0.00000000       0.00000000       0.00000000       0.00000000       51450.0000       102900.000       28.0000000    
          15   1724.01245       289.542236       75.7881546       0.00000000       30.0000000       0.00000000       0.00000000       0.00000000       0.00000000       63384.0000       126768.000       30.0000000    
          16   413.566101       309.248566       76.0779114       0.00000000       32.0000000       0.00000000       0.00000000       0.00000000       0.00000000       53587.5000       107175.000       32.0000000    
          17   1290.33313       942.892090       76.0128860       0.00000000       34.0000000       0.00000000       0.00000000       0.00000000       0.00000000       73118.5000       146237.000       34.0000000    
          18   393.071167       729.919861       76.1925049       0.00000000       36.0000000       0.00000000       0.00000000       0.00000000       0.00000000       66675.0000       133350.000       36.0000000    
          19   1298.08167       612.309570       75.9122009       0.00000000       38.0000000       0.00000000       0.00000000       0.00000000       0.00000000       71885.5000       143771.000       38.0000000    
          20   1144.70288       1111.50183       76.0110168       0.00000000       40.0000000       0.00000000       0.00000000       0.00000000       0.00000000       52863.5000       105727.000       40.0000000    
          21   462.978027       911.747498       76.3843536       0.00000000       42.0000000       0.00000000       0.00000000       0.00000000       0.00000000       65696.0000       131392.000       42.0000000    
          22   1568.27417       1076.14502       76.8887787       0.00000000       44.0000000       0.00000000       0.00000000       0.00000000       0.00000000       75437.5000       150875.000       44.0000000    
          23   82.9742279       591.537659       75.9696121       0.00000000       46.0000000       0.00000000       0.00000000       0.00000000       0.00000000       53441.5000       106883.000       46.0000000    
          24   1280.10388       454.853210       75.8092346       0.00000000       48.0000000       0.00000000       0.00000000       0.00000000       0.00000000       128559.500       257119.000       48.0000000    
          25   1596.13879       587.221252       76.3869400       0.00000000       50.0000000       0.00000000       0.00000000       0.00000000       0.00000000       119683.000       239366.000       50.0000000    
          26   1420.75842       515.365234       76.4900589       0.00000000       52.0000000       0.00000000       0.00000000       0.00000000       0.00000000       65351.5000       130703.000       52.0000000    
          27   85.0411835       96.0708466       76.0756683       0.00000000       54.0000000       0.00000000       0.00000000       0.00000000       0.00000000       61829.5000       123659.000       54.0000000    
          28   218.776077       333.160309       76.3676224       0.00000000       56.0000000       0.00000000       0.00000000       0.00000000       0.00000000       42473.5000       84947.0000       56.0000000    
          29   1667.55334       836.832336       76.1473312       0.00000000       58.0000000       0.00000000       0.00000000       0.00000000       0.00000000       54426.0000       108852.000       58.0000000    
          30   1470.29517       708.826965       76.7645416       0.00000000       60.0000000       0.00000000       0.00000000       0.00000000       0.00000000       49158.0000       98316.0000       60.0000000    
          31   1180.50574       987.510376       76.2540512       0.00000000       62.0000000       0.00000000       0.00000000       0.00000000       0.00000000       66899.0000       133798.000       62.0000000    
          32   1680.50378       1041.05994       76.4145584       0.00000000       64.0000000       0.00000000       0.00000000       0.00000000       0.00000000       40125.0000       80250.0000       64.0000000    
          33   1484.08813       88.4237747       76.5629272       0.00000000       66.0000000       0.00000000       0.00000000       0.00000000       0.00000000       51077.5000       102155.000       66.0000000    
          34   606.077698       96.1666489       76.4127808       0.00000000       68.0000000       0.00000000       0.00000000       0.00000000       0.00000000       29823.5000       59647.0000       68.0000000    
          35   942.304504       1037.65674       76.3949585       0.00000000       70.0000000       0.00000000       0.00000000       0.00000000       0.00000000       53961.5000       107923.000       70.0000000    
          36   876.184204       181.576294       76.1821976       0.00000000       72.0000000       0.00000000       0.00000000       0.00000000       0.00000000       55399.5000       110799.000       72.0000000    
          37   635.786316       263.058136       76.0396805       0.00000000       74.0000000       0.00000000       0.00000000       0.00000000       0.00000000       55040.5000       110081.000       74.0000000    
          38   1375.95020       407.096985       76.1685257       0.00000000       76.0000000       0.00000000       0.00000000       0.00000000       0.00000000       63959.5000       127919.000       76.0000000    
          39   1242.63953       504.401855       76.3863373       0.00000000       78.0000000       0.00000000       0.00000000       0.00000000       0.00000000       103775.000       207550.000       78.0000000    
          40   1004.69043       1116.40686       76.7430496       0.00000000       80.0000000       0.00000000       0.00000000       0.00000000       0.00000000       44842.0000       89684.0000       80.0000000    
          41   1676.71973       152.387650       76.3862228       0.00000000       82.0000000       0.00000000       0.00000000       0.00000000       0.00000000       60516.5000       121033.000       82.0000000    
          42   1552.65479       442.288513       76.2558212       0.00000000       84.0000000       0.00000000       0.00000000       0.00000000       0.00000000       90684.5000       181369.000       84.0000000    
          43   233.487640       444.401642       75.8794174       0.00000000       86.0000000       0.00000000       0.00000000       0.00000000       0.00000000       47116.0000       94232.0000       86.0000000    
          44   856.853699       722.664917       76.6506348       0.00000000       88.0000000       0.00000000       0.00000000       0.00000000       0.00000000       102592.500       205185.000       88.0000000    
          45   686.056763       599.291382       76.1660614       0.00000000       90.0000000       0.00000000       0.00000000       0.00000000       0.00000000       68224.5000       136449.000       90.0000000    
          46   1574.13989       148.594223       76.4309540       0.00000000       92.0000000       0.00000000       0.00000000       0.00000000       0.00000000       52083.0000       104166.000       92.0000000    
          47   822.146301       1011.89093       76.1512451       0.00000000       94.0000000       0.00000000       0.00000000       0.00000000       0.00000000       62469.0000       124938.000       94.0000000    
          48   947.209412       463.784271       75.9974213       0.00000000       96.0000000       0.00000000       0.00000000       0.00000000       0.00000000       79137.0000       158274.000       96.0000000    
          49   1443.83374       769.600708       76.4676819       0.00000000       98.0000000       0.00000000       0.00000000       0.00000000       0.00000000       78294.5000       156589.000       98.0000000    
          50   1085.01624       455.429749       76.6897736       0.00000000       100.000000       0.00000000       0.00000000       0.00000000       0.00000000       45495.5000       90991.0000       100.000000    
          51   653.601440       930.120789       75.8598557       0.00000000       102.000000       0.00000000       0.00000000       0.00000000       0.00000000       41748.5000       83497.0000       102.000000    
          52   143.167206       224.594833       76.1108246       0.00000000       104.000000       0.00000000       0.00000000       0.00000000       0.00000000       70414.5000       140829.000       104.000000    
          53   774.878540       812.793335       76.9586258       0.00000000       106.000000       0.00000000       0.00000000       0.00000000       0.00000000       98563.0000       197126.000       106.000000    
          54   634.719177       409.352844       76.3882675       0.00000000       108.000000       0.00000000       0.00000000       0.00000000       0.00000000       68320.0000       136640.000       108.000000    
          55   1717.47656       1127.98743       76.6912460       0.00000000       110.000000       0.00000000       0.00000000       0.00000000       0.00000000       54683.0000       109366.000       110.000000    
          56   739.114502       1097.55212       75.9266891       0.00000000       112.000000       0.00000000       0.00000000       0.00000000       0.00000000       58661.0000       117322.000       112.000000    
          57   525.110901       102.091591       76.3388977       0.00000000       114.000000       0.00000000       0.00000000       0.00000000       0.00000000       35568.5000       71137.0000       114.000000    
          58   890.581055       832.616699       77.1799240       0.00000000       116.000000       0.00000000       0.00000000       0.00000000       0.00000000       36619.0000       73238.0000       116.000000    
          59   1606.02380       520.346191       76.5963974       0.00000000       118.000000       0.00000000       0.00000000       0.00000000       0.00000000       68581.5000       137163.000       118.000000    
          60   1425.45935       856.819092       76.7730865       0.00000000       120.000000       0.00000000       0.00000000       0.00000000       0.00000000       66108.0000       132216.000       120.000000    
          61   1301.76257       825.079834       76.4893036       0.00000000       122.000000       0.00000000       0.00000000       0.00000000       0.00000000       50073.0000       100146.000       122.000000    
          62   1421.37219       1029.73462       76.6908875       0.00000000       124.000000       0.00000000       0.00000000       0.00000000       0.00000000       94539.0000       189078.000       124.000000    
          63   652.116760       137.149277       75.9085617       0.00000000       126.000000       0.00000000       0.00000000       0.00000000       0.00000000       46224.5000       92449.0000       126.000000    
          64   407.971985       297.192535       76.9655685       0.00000000       128.000000       0.00000000       0.00000000       0.00000000       0.00000000       54910.5000       109821.000       128.000000    
          65   701.421204       972.823975       75.7804413       0.00000000       130.000000       0.00000000       0.00000000       0.00000000       0.00000000       54814.5000       109629.000       130.000000    
          66   141.608536       511.719482       76.0263977       0.00000000       132.000000       0.00000000       0.00000000       0.00000000       0.00000000       58314.5000       116629.000       132.000000    
          67   1486.69983       327.287415       76.1982498       0.00000000       134.000000       0.00000000       0.00000000       0.00000000       0.00000000       47036.0000       94072.0000       134.000000    
          68   117.176964       381.679169       76.0862961       0.00000000       136.000000       0.00000000       0.00000000       0.00000000       0.00000000       55855.5000       111711.000       136.000000    
          69   146.884171       990.749329       75.7870560       0.00000000       138.000000       0.00000000       0.00000000       0.00000000       0.00000000       109936.500       219873.000       138.000000    
          70   289.842010       230.538361       76.3956299       0.00000000       140.000000       0.00000000       0.00000000       0.00000000       0.00000000       76770.0000       153540.000       140.000000    
          71   1526.05981       917.892639       77.2232590       0.00000000       142.000000       0.00000000       0.00000000       0.00000000       0.00000000       65236.0000       130472.000       142.000000    
          72   1070.61987       1028.67676       76.4278412       0.00000000       144.000000       0.00000000       0.00000000       0.00000000       0.00000000       38203.5000       76407.0000       144.000000    
          73   165.976151       965.825684       76.5029831       0.00000000       146.000000       0.00000000       0.00000000       0.00000000       0.00000000       80909.5000       161819.000       146.000000    
          74   1034.45959       358.543823       76.3019180       0.00000000       148.000000       0.00000000       0.00000000       0.00000000       0.00000000       46113.0000       92226.0000       148.000000    
          75   1554.79736       757.858032       76.6082840       0.00000000       150.000000       0.00000000       0.00000000       0.00000000       0.00000000       55164.0000       110328.000       150.000000    
          76   1581.38818       109.758377       76.2174072       0.00000000       152.000000       0.00000000       0.00000000       0.00000000       0.00000000       62361.5000       124723.000       152.000000    
          77   1059.88843       559.563965       76.5147324       0.00000000       154.000000       0.00000000       0.00000000       0.00000000       0.00000000       65466.5000       130933.000       154.000000    
          78   1253.40625       297.292542       76.4742432       0.00000000       156.000000       0.00000000       0.00000000       0.00000000       0.00000000       89237.5000       178475.000       156.000000    
          79   215.639664       690.369873       76.4777832       0.00000000       158.137894       0.00000000       0.00000000       0.00000000       0.00000000       114367.000       228734.000       158.137894    
          80   609.221008       1073.42468       76.1858902       0.00000000       160.000000       0.00000000       0.00000000       0.00000000       0.00000000       67599.5000       135199.000       160.000000    
          81   832.568909       516.482666       76.7394257       0.00000000       162.000000       0.00000000       0.00000000       0.00000000       0.00000000       60277.0000       120554.000       162.000000    
          82   1152.16455       617.798035       76.8291016       0.00000000       164.000000       0.00000000       0.00000000       0.00000000       0.00000000       53032.5000       106065.000       164.000000    
          83   1730.09595       958.321106       76.3007965       0.00000000       166.000000       0.00000000       0.00000000       0.00000000       0.00000000       32889.5000       65779.0000       166.000000    
          84   851.518311       241.359055       76.3551025       0.00000000       168.000000       0.00000000       0.00000000       0.00000000       0.00000000       61019.0000       122038.000       168.000000    
          85   1159.62744       832.194702       76.1681137       0.00000000       170.000000       0.00000000       0.00000000       0.00000000       0.00000000       71344.0000       142688.000       170.000000    
          86   1297.60010       1109.94910       76.2808228       0.00000000       172.000000       0.00000000       0.00000000       0.00000000       0.00000000       88808.0000       177616.000       172.000000    
          87   423.119110       636.818298       76.3555756       0.00000000       174.726791       0.00000000       0.00000000       0.00000000       0.00000000       151732.000       303464.000       174.726791    
          88   808.545959       394.840454       76.1517410       0.00000000       176.000000       0.00000000       0.00000000       0.00000000       0.00000000       75225.0000       150450.000       176.000000    
          89   643.030945       541.391296       76.5341568       0.00000000       177.735138       0.00000000       0.00000000       0.00000000       0.00000000       108897.500       217795.000       177.735138    
          90   961.787476       277.486420       76.2185516       0.00000000       180.000000       0.00000000       0.00000000       0.00000000       0.00000000       76283.0000       152566.000       180.000000    
          91   332.724335       376.164276       76.4618149       0.00000000       182.000000       0.00000000       0.00000000       0.00000000       0.00000000       49152.5000       98305.0000       182.000000    
          92   355.475861       492.553253       76.5440750       0.00000000       184.000000       0.00000000       0.00000000       0.00000000       0.00000000       49045.0000       98090.0000       184.000000    
          93   1260.61121       691.563171       75.8118668       0.00000000       186.000000       0.00000000       0.00000000       0.00000000       0.00000000       67563.5000       135127.000       186.000000    
          94   1693.33875       709.847656       76.6303253       0.00000000       188.000000       0.00000000       0.00000000       0.00000000       0.00000000       71170.5000       142341.000       188.000000    
          95   1009.18317       833.595093       77.0576172       0.00000000       190.000000       0.00000000       0.00000000       0.00000000       0.00000000       51492.5000       102985.000       190.000000    
          96   1364.57544       732.409302       75.4647446       0.00000000       192.000000       0.00000000       0.00000000       0.00000000       0.00000000       44005.0000       88010.0000       192.000000    
          97   1039.70117       708.974060       77.0393066       0.00000000       194.000000       0.00000000       0.00000000       0.00000000       0.00000000       65973.0000       131946.000       194.000000    
          98   664.260193       863.163391       76.4998779       0.00000000       196.000000       0.00000000       0.00000000       0.00000000       0.00000000       56359.5000       112719.000       196.000000    
          99   1162.91602       378.323151       76.4318771       0.00000000       198.000000       0.00000000       0.00000000       0.00000000       0.00000000       51384.0000       102768.000       198.000000    
         100   395.379303       121.566238       76.5877075       0.00000000       200.000000       0.00000000       0.00000000       0.00000000       0.00000000       91364.0000       182728.000       200.000000    
         101   517.532410       746.634644       76.3866272       0.00000000       202.000000       0.00000000       0.00000000       0.00000000       0.00000000       64596.5000       129193.000       202.000000    
         102   212.040314       151.731400       76.2430420       0.00000000       204.000000       0.00000000       0.00000000       0.00000000       0.00000000       89930.5000       179861.000       204.000000    
         103   477.980316       464.564880       77.2090454       0.00000000       206.072495       0.00000000       0.00000000       0.00000000       0.00000000       84839.0000       169678.000       206.072495    
         104   1051.38916       927.962280       76.8332367       0.00000000       208.000000       0.00000000       0.00000000       0.00000000       0.00000000       53324.0000       106648.000       208.000000    
         105   1117.33459       149.499344       76.3851318       0.00000000       209.483932       0.00000000       0.00000000       0.00000000       0.00000000       107810.500       215621.000       209.483932    
         106   1628.91162       821.694702       76.7036133       0.00000000       212.000000       0.00000000       0.00000000       0.00000000       0.00000000       44730.0000       89460.0000       212.000000    
         107   920.200867       739.791382       76.2493057       0.00000000       214.000000       0.00000000       0.00000000       0.00000000       0.00000000       49578.0000       99156.0000       214.000000    
         108   926.324341       123.626480       76.4502792       0.00000000       216.000000       0.00000000       0.00000000       0.00000000       0.00000000       93208.0000       186416.000       216.000000    
         109   1193.31665       422.477875       76.4443970       0.00000000       218.000000       0.00000000       0.00000000       0.00000000       0.00000000       73646.5000       147293.000       218.000000    
         110   1366.44421       268.414764       76.4448853       0.00000000       220.000000       0.00000000       0.00000000       0.00000000       0.00000000       66333.5000       132667.000       220.000000    
         111   248.966263       1086.01135       75.9720917       0.00000000       222.637436       0.00000000       0.00000000       0.00000000       0.00000000       111342.500       222685.000       222.637436    
         112   1634.61108       936.512756       75.9600830       0.00000000       224.000000       0.00000000       0.00000000       0.00000000       0.00000000       45440.0000       90880.0000       224.000000    
         113   1317.36670       105.801437       76.4203262       0.00000000       225.321548       0.00000000       0.00000000       0.00000000       0.00000000       112534.500       225069.000       225.321548    
         114   1468.29358       208.178345       76.7829208       0.00000000       228.000000       0.00000000       0.00000000       0.00000000       0.00000000       61869.5000       123739.000       228.000000    
         115   272.065582       568.778870       75.9300003       0.00000000       230.000000       0.00000000       0.00000000       0.00000000       0.00000000       50338.5000       100677.000       230.000000    
         116   864.576233       1052.96924       76.1985397       0.00000000       232.000000       0.00000000       0.00000000       0.00000000       0.00000000       54342.0000       108684.000       232.000000    
         117   331.245422       858.523743       76.3237381       0.00000000       232.813934       0.00000000       0.00000000       0.00000000       0.00000000       176889.500       353779.000       232.813934    
         118   905.265320       929.254883       76.8226013       0.00000000       236.000000       0.00000000       0.00000000       0.00000000       0.00000000       49197.5000       98395.0000       236.000000    
         119   1035.85999       434.085693       76.6082764       0.00000000       238.068237       0.00000000       0.00000000       0.00000000       0.00000000       73032.5000       146065.000       238.068237    
         120   738.945435       632.763794       76.3330154       0.00000000       240.000000       0.00000000       0.00000000       0.00000000       0.00000000       91173.5000       182347.000       240.000000    
         121   572.461243       750.439514       76.6041794       0.00000000       240.884628       0.00000000       0.00000000       0.00000000       0.00000000       156830.000       313660.000       240.884628    
         122   564.537781       944.896790       76.7861481       0.00000000       244.000000       0.00000000       0.00000000       0.00000000       0.00000000       56184.5000       112369.000       244.000000    
 #=======================STRUCTURE TYPES:FCC+HCP+other defects=======================
 #GRAIN NUMBER| COORDINATES: X Y Z | STRESS XX YY ZZ ZY XZ XY | GRAIN VOLUME | NUMBER OF ATOMS | VON-MISES STRESS |
 #AVERAGE VON MISES STRESS FOR THIS STRUCTURE TYPE IS   127.759018    
           1   443.191193       1046.50635       76.5300751       0.00000000       2.00000000       0.00000000       0.00000000       0.00000000       0.00000000       96064.5000       192129.000       2.00000000    
           2   397.799805       965.655029       76.2454987       0.00000000       4.00000000       0.00000000       0.00000000       0.00000000       0.00000000       69552.0000       139104.000       4.00000000    
           3   890.020203       638.379883       76.4364471       0.00000000       6.00000000       0.00000000       0.00000000       0.00000000       0.00000000       93481.5000       186963.000       6.00000000    
           4   1390.94910       612.702209       76.3536682       0.00000000       8.00000000       0.00000000       0.00000000       0.00000000       0.00000000       77815.5000       155631.000       8.00000000    
           5   495.401154       256.357605       76.6791916       0.00000000       10.0000000       0.00000000       0.00000000       0.00000000       0.00000000       48457.5000       96915.0000       10.0000000    
           6   120.688240       836.624512       75.9276962       0.00000000       12.0000000       0.00000000       0.00000000       0.00000000       0.00000000       114975.000       229950.000       12.0000000    
           7   762.550720       146.449646       75.9878006       0.00000000       14.0000000       0.00000000       0.00000000       0.00000000       0.00000000       83023.5000       166047.000       14.0000000    
           8   1614.59692       308.989868       76.6667099       0.00000000       16.0000000       0.00000000       0.00000000       0.00000000       0.00000000       93229.5000       186459.000       16.0000000    
           9   740.952576       302.957184       76.3994980       0.00000000       18.0000000       0.00000000       0.00000000       0.00000000       0.00000000       62034.0000       124068.000       18.0000000    
          10   1152.75623       717.495605       76.3785172       0.00000000       20.0000000       0.00000000       0.00000000       0.00000000       0.00000000       43176.0000       86352.0000       20.0000000    
          11   1114.01050       264.787079       76.3940277       0.00000000       22.0000000       0.00000000       0.00000000       0.00000000       0.00000000       63997.5000       127995.000       22.0000000    
          12   533.174805       359.392365       77.0920410       0.00000000       24.0000000       0.00000000       0.00000000       0.00000000       0.00000000       54852.0000       109704.000       24.0000000    
          13   538.358337       187.847839       75.8615646       0.00000000       26.0000000       0.00000000       0.00000000       0.00000000       0.00000000       44803.5000       89607.0000       26.0000000    
          14   307.143829       523.860413       75.8997574       0.00000000       28.0000000       0.00000000       0.00000000       0.00000000       0.00000000       58737.0000       117474.000       28.0000000    
          15   1725.13208       287.407867       75.9045105       0.00000000       30.0000000       0.00000000       0.00000000       0.00000000       0.00000000       71410.5000       142821.000       30.0000000    
          16   451.384888       310.070374       76.1846237       0.00000000       32.0000000       0.00000000       0.00000000       0.00000000       0.00000000       61456.5000       122913.000       32.0000000    
          17   1290.83423       943.542236       76.1252365       0.00000000       34.0000000       0.00000000       0.00000000       0.00000000       0.00000000       83506.5000       167013.000       34.0000000    
          18   409.907990       729.203918       76.1477585       0.00000000       36.0000000       0.00000000       0.00000000       0.00000000       0.00000000       72775.5000       145551.000       36.0000000    
          19   1296.86462       611.018738       76.0176315       0.00000000       38.0000000       0.00000000       0.00000000       0.00000000       0.00000000       81543.0000       163086.000       38.0000000    
          20   1143.60034       1112.73096       76.0365677       0.00000000       40.0000000       0.00000000       0.00000000       0.00000000       0.00000000       57760.5000       115521.000       40.0000000    
          21   461.762329       911.416626       76.3947296       0.00000000       42.0000000       0.00000000       0.00000000       0.00000000       0.00000000       75180.0000       150360.000       42.0000000    
          22   1567.21497       1076.55444       76.7585526       0.00000000       44.0000000       0.00000000       0.00000000       0.00000000       0.00000000       83160.0000       166320.000       44.0000000    
          23   81.0026703       591.933350       75.9661255       0.00000000       46.0000000       0.00000000       0.00000000       0.00000000       0.00000000       59650.5000       119301.000       46.0000000    
          24   1258.50220       455.188080       75.7515640       0.00000000       48.0000000       0.00000000       0.00000000       0.00000000       0.00000000       138988.500       277977.000       48.0000000    
          25   1595.35327       588.339783       76.4375534       0.00000000       50.0000000       0.00000000       0.00000000       0.00000000       0.00000000       130494.000       260988.000       50.0000000    
          26   1420.59680       515.698181       76.4583282       0.00000000       52.0000000       0.00000000       0.00000000       0.00000000       0.00000000       74833.5000       149667.000       52.0000000    
          27   84.9450073       95.7428970       76.1093063       0.00000000       54.0000000       0.00000000       0.00000000       0.00000000       0.00000000       69069.0000       138138.000       54.0000000    
          28   219.302536       331.365784       76.4297409       0.00000000       56.0000000       0.00000000       0.00000000       0.00000000       0.00000000       49413.0000       98826.0000       56.0000000    
          29   1663.63708       836.475098       76.0774918       0.00000000       58.0000000       0.00000000       0.00000000       0.00000000       0.00000000       59083.5000       118167.000       58.0000000    
          30   1469.98230       708.430725       76.6212006       0.00000000       60.0000000       0.00000000       0.00000000       0.00000000       0.00000000       55671.0000       111342.000       60.0000000    
          31   1180.94946       986.511780       76.3318558       0.00000000       62.0000000       0.00000000       0.00000000       0.00000000       0.00000000       74025.0000       148050.000       62.0000000    
          32   1682.98499       1041.75952       76.4378510       0.00000000       64.0000000       0.00000000       0.00000000       0.00000000       0.00000000       45706.5000       91413.0000       64.0000000    
          33   1482.87256       89.4766617       76.5871124       0.00000000       66.0000000       0.00000000       0.00000000       0.00000000       0.00000000       58474.5000       116949.000       66.0000000    
          34   604.594421       101.846146       76.3880234       0.00000000       68.0000000       0.00000000       0.00000000       0.00000000       0.00000000       34660.5000       69321.0000       68.0000000    
          35   943.103821       1036.46936       76.5374985       0.00000000       70.0000000       0.00000000       0.00000000       0.00000000       0.00000000       60774.0000       121548.000       70.0000000    
          36   868.151184       182.274399       75.9558105       0.00000000       72.0000000       0.00000000       0.00000000       0.00000000       0.00000000       60511.5000       121023.000       72.0000000    
          37   636.510193       262.648987       75.9594269       0.00000000       74.0000000       0.00000000       0.00000000       0.00000000       0.00000000       63483.0000       126966.000       74.0000000    
          38   1376.73279       407.144501       76.2580719       0.00000000       76.0000000       0.00000000       0.00000000       0.00000000       0.00000000       72418.5000       144837.000       76.0000000    
          39   1243.07715       504.149292       76.3770676       0.00000000       78.0000000       0.00000000       0.00000000       0.00000000       0.00000000       114376.500       228753.000       78.0000000    
          40   1003.81036       1117.32275       76.5741043       0.00000000       80.0000000       0.00000000       0.00000000       0.00000000       0.00000000       52647.0000       105294.000       80.0000000    
          41   1677.20813       151.954269       76.4002380       0.00000000       82.0000000       0.00000000       0.00000000       0.00000000       0.00000000       66150.0000       132300.000       82.0000000    
          42   1554.21594       442.591980       76.2808990       0.00000000       84.0000000       0.00000000       0.00000000       0.00000000       0.00000000       101293.500       202587.000       84.0000000    
          43   233.895096       444.871246       75.8736954       0.00000000       86.0000000       0.00000000       0.00000000       0.00000000       0.00000000       54222.0000       108444.000       86.0000000    
          44   856.852844       711.052917       76.6754913       0.00000000       88.0000000       0.00000000       0.00000000       0.00000000       0.00000000       111426.000       222852.000       88.0000000    
          45   687.041321       610.513367       76.2261505       0.00000000       90.0000000       0.00000000       0.00000000       0.00000000       0.00000000       76786.5000       153573.000       90.0000000    
          46   1573.94409       148.016373       76.5374146       0.00000000       92.0000000       0.00000000       0.00000000       0.00000000       0.00000000       58138.5000       116277.000       92.0000000    
          47   822.562927       1012.95685       76.1084747       0.00000000       94.0000000       0.00000000       0.00000000       0.00000000       0.00000000       72933.0000       145866.000       94.0000000    
          48   947.388123       464.711487       76.0436020       0.00000000       96.0000000       0.00000000       0.00000000       0.00000000       0.00000000       89418.0000       178836.000       96.0000000    
          49   1444.35376       757.286621       76.5624084       0.00000000       98.0000000       0.00000000       0.00000000       0.00000000       0.00000000       86352.0000       172704.000       98.0000000    
          50   1083.71350       455.929260       76.5835037       0.00000000       100.000000       0.00000000       0.00000000       0.00000000       0.00000000       52447.5000       104895.000       100.000000    
          51   683.598633       928.037537       76.0143661       0.00000000       102.000000       0.00000000       0.00000000       0.00000000       0.00000000       49339.5000       98679.0000       102.000000    
          52   143.131363       223.625961       76.0880127       0.00000000       104.000000       0.00000000       0.00000000       0.00000000       0.00000000       79275.0000       158550.000       104.000000    
          53   775.125183       812.814392       76.9201355       0.00000000       106.000000       0.00000000       0.00000000       0.00000000       0.00000000       106848.000       213696.000       106.000000    
          54   632.950684       410.673553       76.4796906       0.00000000       108.000000       0.00000000       0.00000000       0.00000000       0.00000000       79149.0000       158298.000       108.000000    
          55   1716.21240       1115.20276       76.7804184       0.00000000       110.000000       0.00000000       0.00000000       0.00000000       0.00000000       61225.5000       122451.000       110.000000    
          56   740.224548       1099.58887       76.1368484       0.00000000       112.000000       0.00000000       0.00000000       0.00000000       0.00000000       65656.5000       131313.000       112.000000    
          57   525.761719       102.595558       76.4035568       0.00000000       114.000000       0.00000000       0.00000000       0.00000000       0.00000000       41937.0000       83874.0000       114.000000    
          58   891.154236       832.335754       77.1773834       0.00000000       116.000000       0.00000000       0.00000000       0.00000000       0.00000000       43869.0000       87738.0000       116.000000    
          59   1606.78882       532.693420       76.4866333       0.00000000       118.000000       0.00000000       0.00000000       0.00000000       0.00000000       77826.0000       155652.000       118.000000    
          60   1423.86719       858.093994       76.5557251       0.00000000       120.000000       0.00000000       0.00000000       0.00000000       0.00000000       73689.0000       147378.000       120.000000    
          61   1301.78992       825.362610       76.3692093       0.00000000       122.000000       0.00000000       0.00000000       0.00000000       0.00000000       58107.0000       116214.000       122.000000    
          62   1422.19299       1030.58057       76.7106934       0.00000000       124.000000       0.00000000       0.00000000       0.00000000       0.00000000       106396.500       212793.000       124.000000    
          63   652.421997       136.136292       75.9524384       0.00000000       126.000000       0.00000000       0.00000000       0.00000000       0.00000000       52836.0000       105672.000       126.000000    
          64   408.789215       296.852600       76.9200058       0.00000000       128.000000       0.00000000       0.00000000       0.00000000       0.00000000       63147.0000       126294.000       128.000000    
          65   702.155884       970.977234       75.8733902       0.00000000       130.000000       0.00000000       0.00000000       0.00000000       0.00000000       61320.0000       122640.000       130.000000    
          66   142.168716       511.873230       76.0736847       0.00000000       132.000000       0.00000000       0.00000000       0.00000000       0.00000000       64533.0000       129066.000       132.000000    
          67   1486.68359       325.423584       76.1393280       0.00000000       134.000000       0.00000000       0.00000000       0.00000000       0.00000000       55072.5000       110145.000       134.000000    
          68   117.289574       380.148895       75.9035797       0.00000000       136.000000       0.00000000       0.00000000       0.00000000       0.00000000       64302.0000       128604.000       136.000000    
          69   146.201630       990.837036       75.7189560       0.00000000       138.000000       0.00000000       0.00000000       0.00000000       0.00000000       119721.000       239442.000       138.000000    
          70   289.491516       230.799088       76.6268234       0.00000000       140.000000       0.00000000       0.00000000       0.00000000       0.00000000       85753.5000       171507.000       140.000000    
          71   1525.29150       917.233887       77.1042099       0.00000000       142.000000       0.00000000       0.00000000       0.00000000       0.00000000       74256.0000       148512.000       142.000000    
          72   1072.02991       1029.06860       76.3354645       0.00000000       144.000000       0.00000000       0.00000000       0.00000000       0.00000000       45003.0000       90006.0000       144.000000    
          73   195.155060       956.201355       76.5074692       0.00000000       146.000000       0.00000000       0.00000000       0.00000000       0.00000000       91339.5000       182679.000       146.000000    
          74   1034.09387       359.357391       76.2193451       0.00000000       148.000000       0.00000000       0.00000000       0.00000000       0.00000000       51859.5000       103719.000       148.000000    
          75   1552.73328       757.910950       76.6052322       0.00000000       150.000000       0.00000000       0.00000000       0.00000000       0.00000000       62842.5000       125685.000       150.000000    
          76   1561.99524       115.210236       76.2384720       0.00000000       152.000000       0.00000000       0.00000000       0.00000000       0.00000000       69541.5000       139083.000       152.000000    
          77   1059.01440       559.297485       76.4089508       0.00000000       154.000000       0.00000000       0.00000000       0.00000000       0.00000000       73353.0000       146706.000       154.000000    
          78   1254.35327       295.898193       76.3381042       0.00000000       156.000000       0.00000000       0.00000000       0.00000000       0.00000000       99477.0000       198954.000       156.000000    
          79   214.643326       689.537842       76.3500595       0.00000000       158.124435       0.00000000       0.00000000       0.00000000       0.00000000       126735.000       253470.000       158.124435    
          80   608.652161       1073.15112       76.1841507       0.00000000       160.000000       0.00000000       0.00000000       0.00000000       0.00000000       73437.0000       146874.000       160.000000    
          81   831.602051       514.253052       76.6105576       0.00000000       162.000000       0.00000000       0.00000000       0.00000000       0.00000000       67536.0000       135072.000       162.000000    
          82   1150.75830       618.593933       76.5596390       0.00000000       164.000000       0.00000000       0.00000000       0.00000000       0.00000000       59545.5000       119091.000       164.000000    
          83   1729.96277       960.391846       76.4026413       0.00000000       166.000000       0.00000000       0.00000000       0.00000000       0.00000000       38199.0000       76398.0000       166.000000    
          84   850.299561       242.629929       76.4128113       0.00000000       168.000000       0.00000000       0.00000000       0.00000000       0.00000000       66874.5000       133749.000       168.000000    
          85   1159.10999       831.731812       76.2099457       0.00000000       170.000000       0.00000000       0.00000000       0.00000000       0.00000000       80524.5000       161049.000       170.000000    
          86   1298.25244       1101.05298       76.2618027       0.00000000       172.000000       0.00000000       0.00000000       0.00000000       0.00000000       98416.5000       196833.000       172.000000    
          87   423.256622       637.197693       76.4235001       0.00000000       174.661789       0.00000000       0.00000000       0.00000000       0.00000000       166635.000       333270.000       174.661789    
          88   809.528076       394.856903       76.0578918       0.00000000       176.000000       0.00000000       0.00000000       0.00000000       0.00000000       83317.5000       166635.000       176.000000    
          89   643.747253       541.275452       76.4335251       0.00000000       177.761719       0.00000000       0.00000000       0.00000000       0.00000000       121054.500       242109.000       177.761719    
          90   960.935730       277.983612       76.3111038       0.00000000       180.000000       0.00000000       0.00000000       0.00000000       0.00000000       85144.5000       170289.000       180.000000    
          91   333.051819       375.885040       76.4276657       0.00000000       182.000000       0.00000000       0.00000000       0.00000000       0.00000000       55062.0000       110124.000       182.000000    
          92   355.797668       492.537628       76.3057251       0.00000000       184.000000       0.00000000       0.00000000       0.00000000       0.00000000       55314.0000       110628.000       184.000000    
          93   1259.13916       690.588867       76.0174179       0.00000000       186.000000       0.00000000       0.00000000       0.00000000       0.00000000       74287.5000       148575.000       186.000000    
          94   1693.69312       710.699280       76.7761002       0.00000000       188.000000       0.00000000       0.00000000       0.00000000       0.00000000       80850.0000       161700.000       188.000000    
          95   1009.07220       834.767090       77.0833893       0.00000000       190.000000       0.00000000       0.00000000       0.00000000       0.00000000       56427.0000       112854.000       190.000000    
          96   1363.60120       730.881958       75.7199097       0.00000000       192.000000       0.00000000       0.00000000       0.00000000       0.00000000       52605.0000       105210.000       192.000000    
          97   1039.82263       707.518250       77.0570221       0.00000000       194.000000       0.00000000       0.00000000       0.00000000       0.00000000       72597.0000       145194.000       194.000000    
          98   663.584290       865.133484       76.5832825       0.00000000       196.000000       0.00000000       0.00000000       0.00000000       0.00000000       62065.5000       124131.000       196.000000    
          99   1162.40405       377.628204       76.5152664       0.00000000       198.000000       0.00000000       0.00000000       0.00000000       0.00000000       57204.0000       114408.000       198.000000    
         100   394.980377       121.396027       76.5996017       0.00000000       200.000000       0.00000000       0.00000000       0.00000000       0.00000000       100191.000       200382.000       200.000000    
         101   517.682861       731.746033       76.4357910       0.00000000       202.000000       0.00000000       0.00000000       0.00000000       0.00000000       71914.5000       143829.000       202.000000    
         102   212.928299       162.448761       76.2194748       0.00000000       204.000000       0.00000000       0.00000000       0.00000000       0.00000000       100327.500       200655.000       204.000000    
         103   476.562195       465.535736       77.1694183       0.00000000       206.065475       0.00000000       0.00000000       0.00000000       0.00000000       93922.5000       187845.000       206.065475    
         104   1052.26465       928.687683       76.8739548       0.00000000       208.000000       0.00000000       0.00000000       0.00000000       0.00000000       61309.5000       122619.000       208.000000    
         105   1117.33826       149.096771       76.4911041       0.00000000       209.520294       0.00000000       0.00000000       0.00000000       0.00000000       115983.000       231966.000       209.520294    
         106   1629.54211       822.943542       76.6503296       0.00000000       212.000000       0.00000000       0.00000000       0.00000000       0.00000000       50736.0000       101472.000       212.000000    
         107   920.868042       738.817261       76.4469376       0.00000000       214.000000       0.00000000       0.00000000       0.00000000       0.00000000       59230.5000       118461.000       214.000000    
         108   926.175537       121.594124       76.3614273       0.00000000       216.000000       0.00000000       0.00000000       0.00000000       0.00000000       101881.500       203763.000       216.000000    
         109   1193.69861       434.934326       76.3554535       0.00000000       217.999985       0.00000000       0.00000000       0.00000000       0.00000000       84031.5000       168063.000       217.999985    
         110   1364.72888       268.197693       76.4733505       0.00000000       220.000000       0.00000000       0.00000000       0.00000000       0.00000000       73878.0000       147756.000       220.000000    
         111   248.514374       1086.65942       75.8670425       0.00000000       222.589981       0.00000000       0.00000000       0.00000000       0.00000000       120298.500       240597.000       222.589981    
         112   1634.34570       936.217163       76.3591309       0.00000000       224.000000       0.00000000       0.00000000       0.00000000       0.00000000       54222.0000       108444.000       224.000000    
         113   1318.35083       106.443085       76.3755951       0.00000000       225.380951       0.00000000       0.00000000       0.00000000       0.00000000       123333.000       246666.000       225.380951    
         114   1467.51086       206.802078       76.7388687       0.00000000       227.999985       0.00000000       0.00000000       0.00000000       0.00000000       67420.5000       134841.000       227.999985    
         115   271.832489       568.512939       76.4316864       0.00000000       230.000000       0.00000000       0.00000000       0.00000000       0.00000000       60217.5000       120435.000       230.000000    
         116   838.341431       1053.01294       76.1125870       0.00000000       231.999969       0.00000000       0.00000000       0.00000000       0.00000000       61005.0000       122010.000       231.999969    
         117   330.869415       858.429077       76.3199539       0.00000000       232.923782       0.00000000       0.00000000       0.00000000       0.00000000       194943.000       389886.000       232.923782    
         118   905.242676       929.055115       76.5230865       0.00000000       235.999985       0.00000000       0.00000000       0.00000000       0.00000000       56868.0000       113736.000       235.999985    
         119   1035.48328       438.688110       76.5545883       0.00000000       238.060211       0.00000000       0.00000000       0.00000000       0.00000000       82729.5000       165459.000       238.060211    
         120   737.805237       633.471680       76.4617691       0.00000000       240.000000       0.00000000       0.00000000       0.00000000       0.00000000       103194.000       206388.000       240.000000    
         121   571.207947       749.840271       76.4529266       0.00000000       240.967300       0.00000000       0.00000000       0.00000000       0.00000000       169386.000       338772.000       240.967300    
         122   566.040955       946.056824       76.5498657       0.00000000       244.000000       0.00000000       0.00000000       0.00000000       0.00000000       63483.0000       126966.000       244.000000    
 #=======================ALL STRUCTURE TYPES=======================
 #GRAIN NUMBER| COORDINATES: X Y Z | STRESS XX YY ZZ ZY XZ XY | GRAIN VOLUME | NUMBER OF ATOMS | VON-MISES STRESS |
 #AVERAGE VON MISES STRESS FOR THIS STRUCTURE TYPE IS   127.759018    
           1   443.191193       1046.50635       76.5300751       0.00000000       2.00000000       0.00000000       0.00000000       0.00000000       0.00000000       96064.5000       192129.000       2.00000000    
           2   397.799805       965.655029       76.2454987       0.00000000       4.00000000       0.00000000       0.00000000       0.00000000       0.00000000       69552.0000       139104.000       4.00000000    
           3   890.020203       638.379883       76.4364471       0.00000000       6.00000000       0.00000000       0.00000000       0.00000000       0.00000000       93481.5000       186963.000       6.00000000    
           4   1390.94910       612.702209       76.3536682       0.00000000       8.00000000       0.00000000       0.00000000       0.00000000       0.00000000       77815.5000       155631.000       8.00000000    
           5   495.401154       256.357605       76.6791916       0.00000000       10.0000000       0.00000000       0.00000000       0.00000000       0.00000000       48457.5000       96915.0000       10.0000000    
           6   120.688240       836.624512       75.9276962       0.00000000       12.0000000       0.00000000       0.00000000       0.00000000       0.00000000       114975.000       229950.000       12.0000000    
           7   762.550720       146.449646       75.9878006       0.00000000       14.0000000       0.00000000       0.00000000       0.00000000       0.00000000       83023.5000       166047.000       14.0000000    
           8   1614.59692       308.989868       76.6667099       0.00000000       16.0000000       0.00000000       0.00000000       0.00000000       0.00000000       93229.5000       186459.000       16.0000000    
           9   740.952576       302.957184       76.3994980       0.00000000       18.0000000       0.00000000       0.00000000       0.00000000       0.00000000       62034.0000       124068.000       18.0000000    
          10   1152.75623       717.495605       76.3785172       0.00000000       20.0000000       0.00000000       0.00000000       0.00000000       0.00000000       43176.0000       86352.0000       20.0000000    
          11   1114.01050       264.787079       76.3940277       0.00000000       22.0000000       0.00000000       0.00000000       0.00000000       0.00000000       63997.5000       127995.000       22.0000000    
          12   533.174805       359.392365       77.0920410       0.00000000       24.0000000       0.00000000       0.00000000       0.00000000       0.00000000       54852.0000       109704.000       24.0000000    
          13   538.358337       187.847839       75.8615646       0.00000000       26.0000000       0.00000000       0.00000000       0.00000000       0.00000000       44803.5000       89607.0000       26.0000000    
          14   307.143829       523.860413       75.8997574       0.00000000       28.0000000       0.00000000       0.00000000       0.00000000       0.00000000       58737.0000       117474.000       28.0000000    
          15   1725.13208       287.407867       75.9045105       0.00000000       30.0000000       0.00000000       0.00000000       0.00000000       0.00000000       71410.5000       142821.000       30.0000000    
          16   451.384888       310.070374       76.1846237       0.00000000       32.0000000       0.00000000       0.00000000       0.00000000       0.00000000       61456.5000       122913.000       32.0000000    
          17   1290.83423       943.542236       76.1252365       0.00000000       34.0000000       0.00000000       0.00000000       0.00000000       0.00000000       83506.5000       167013.000       34.0000000    
          18   409.907990       729.203918       76.1477585       0.00000000       36.0000000       0.00000000       0.00000000       0.00000000       0.00000000       72775.5000       145551.000       36.0000000    
          19   1296.86462       611.018738       76.0176315       0.00000000       38.0000000       0.00000000       0.00000000       0.00000000       0.00000000       81543.0000       163086.000       38.0000000    
          20   1143.60034       1112.73096       76.0365677       0.00000000       40.0000000       0.00000000       0.00000000       0.00000000       0.00000000       57760.5000       115521.000       40.0000000    
          21   461.762329       911.416626       76.3947296       0.00000000       42.0000000       0.00000000       0.00000000       0.00000000       0.00000000       75180.0000       150360.000       42.0000000    
          22   1567.21497       1076.55444       76.7585526       0.00000000       44.0000000       0.00000000       0.00000000       0.00000000       0.00000000       83160.0000       166320.000       44.0000000    
          23   81.0026703       591.933350       75.9661255       0.00000000       46.0000000       0.00000000       0.00000000       0.00000000       0.00000000       59650.5000       119301.000       46.0000000    
          24   1258.50220       455.188080       75.7515640       0.00000000       48.0000000       0.00000000       0.00000000       0.00000000       0.00000000       138988.500       277977.000       48.0000000    
          25   1595.35327       588.339783       76.4375534       0.00000000       50.0000000       0.00000000       0.00000000       0.00000000       0.00000000       130494.000       260988.000       50.0000000    
          26   1420.59680       515.698181       76.4583282       0.00000000       52.0000000       0.00000000       0.00000000       0.00000000       0.00000000       74833.5000       149667.000       52.0000000    
          27   84.9450073       95.7428970       76.1093063       0.00000000       54.0000000       0.00000000       0.00000000       0.00000000       0.00000000       69069.0000       138138.000       54.0000000    
          28   219.302536       331.365784       76.4297409       0.00000000       56.0000000       0.00000000       0.00000000       0.00000000       0.00000000       49413.0000       98826.0000       56.0000000    
          29   1663.63708       836.475098       76.0774918       0.00000000       58.0000000       0.00000000       0.00000000       0.00000000       0.00000000       59083.5000       118167.000       58.0000000    
          30   1469.98230       708.430725       76.6212006       0.00000000       60.0000000       0.00000000       0.00000000       0.00000000       0.00000000       55671.0000       111342.000       60.0000000    
          31   1180.94946       986.511780       76.3318558       0.00000000       62.0000000       0.00000000       0.00000000       0.00000000       0.00000000       74025.0000       148050.000       62.0000000    
          32   1682.98499       1041.75952       76.4378510       0.00000000       64.0000000       0.00000000       0.00000000       0.00000000       0.00000000       45706.5000       91413.0000       64.0000000    
          33   1482.87256       89.4766617       76.5871124       0.00000000       66.0000000       0.00000000       0.00000000       0.00000000       0.00000000       58474.5000       116949.000       66.0000000    
          34   604.594421       101.846146       76.3880234       0.00000000       68.0000000       0.00000000       0.00000000       0.00000000       0.00000000       34660.5000       69321.0000       68.0000000    
          35   943.103821       1036.46936       76.5374985       0.00000000       70.0000000       0.00000000       0.00000000       0.00000000       0.00000000       60774.0000       121548.000       70.0000000    
          36   868.151184       182.274399       75.9558105       0.00000000       72.0000000       0.00000000       0.00000000       0.00000000       0.00000000       60511.5000       121023.000       72.0000000    
          37   636.510193       262.648987       75.9594269       0.00000000       74.0000000       0.00000000       0.00000000       0.00000000       0.00000000       63483.0000       126966.000       74.0000000    
          38   1376.73279       407.144501       76.2580719       0.00000000       76.0000000       0.00000000       0.00000000       0.00000000       0.00000000       72418.5000       144837.000       76.0000000    
          39   1243.07715       504.149292       76.3770676       0.00000000       78.0000000       0.00000000       0.00000000       0.00000000       0.00000000       114376.500       228753.000       78.0000000    
          40   1003.81036       1117.32275       76.5741043       0.00000000       80.0000000       0.00000000       0.00000000       0.00000000       0.00000000       52647.0000       105294.000       80.0000000    
          41   1677.20813       151.954269       76.4002380       0.00000000       82.0000000       0.00000000       0.00000000       0.00000000       0.00000000       66150.0000       132300.000       82.0000000    
          42   1554.21594       442.591980       76.2808990       0.00000000       84.0000000       0.00000000       0.00000000       0.00000000       0.00000000       101293.500       202587.000       84.0000000    
          43   233.895096       444.871246       75.8736954       0.00000000       86.0000000       0.00000000       0.00000000       0.00000000       0.00000000       54222.0000       108444.000       86.0000000    
          44   856.852844       711.052917       76.6754913       0.00000000       88.0000000       0.00000000       0.00000000       0.00000000       0.00000000       111426.000       222852.000       88.0000000    
          45   687.041321       610.513367       76.2261505       0.00000000       90.0000000       0.00000000       0.00000000       0.00000000       0.00000000       76786.5000       153573.000       90.0000000    
          46   1573.94409       148.016373       76.5374146       0.00000000       92.0000000       0.00000000       0.00000000       0.00000000       0.00000000       58138.5000       116277.000       92.0000000    
          47   822.562927       1012.95685       76.1084747       0.00000000       94.0000000       0.00000000       0.00000000       0.00000000       0.00000000       72933.0000       145866.000       94.0000000    
          48   947.388123       464.711487       76.0436020       0.00000000       96.0000000       0.00000000       0.00000000       0.00000000       0.00000000       89418.0000       178836.000       96.0000000    
          49   1444.35376       757.286621       76.5624084       0.00000000       98.0000000       0.00000000       0.00000000       0.00000000       0.00000000       86352.0000       172704.000       98.0000000    
          50   1083.71350       455.929260       76.5835037       0.00000000       100.000000       0.00000000       0.00000000       0.00000000       0.00000000       52447.5000       104895.000       100.000000    
          51   683.598633       928.037537       76.0143661       0.00000000       102.000000       0.00000000       0.00000000       0.00000000       0.00000000       49339.5000       98679.0000       102.000000    
          52   143.131363       223.625961       76.0880127       0.00000000       104.000000       0.00000000       0.00000000       0.00000000       0.00000000       79275.0000       158550.000       104.000000    
          53   775.125183       812.814392       76.9201355       0.00000000       106.000000       0.00000000       0.00000000       0.00000000       0.00000000       106848.000       213696.000       106.000000    
          54   632.950684       410.673553       76.4796906       0.00000000       108.000000       0.00000000       0.00000000       0.00000000       0.00000000       79149.0000       158298.000       108.000000    
          55   1716.21240       1115.20276       76.7804184       0.00000000       110.000000       0.00000000       0.00000000       0.00000000       0.00000000       61225.5000       122451.000       110.000000    
          56   740.224548       1099.58887       76.1368484       0.00000000       112.000000       0.00000000       0.00000000       0.00000000       0.00000000       65656.5000       131313.000       112.000000    
          57   525.761719       102.595558       76.4035568       0.00000000       114.000000       0.00000000       0.00000000       0.00000000       0.00000000       41937.0000       83874.0000       114.000000    
          58   891.154236       832.335754       77.1773834       0.00000000       116.000000       0.00000000       0.00000000       0.00000000       0.00000000       43869.0000       87738.0000       116.000000    
          59   1606.78882       532.693420       76.4866333       0.00000000       118.000000       0.00000000       0.00000000       0.00000000       0.00000000       77826.0000       155652.000       118.000000    
          60   1423.86719       858.093994       76.5557251       0.00000000       120.000000       0.00000000       0.00000000       0.00000000       0.00000000       73689.0000       147378.000       120.000000    
          61   1301.78992       825.362610       76.3692093       0.00000000       122.000000       0.00000000       0.00000000       0.00000000       0.00000000       58107.0000       116214.000       122.000000    
          62   1422.19299       1030.58057       76.7106934       0.00000000       124.000000       0.00000000       0.00000000       0.00000000       0.00000000       106396.500       212793.000       124.000000    
          63   652.421997       136.136292       75.9524384       0.00000000       126.000000       0.00000000       0.00000000       0.00000000       0.00000000       52836.0000       105672.000       126.000000    
          64   408.789215       296.852600       76.9200058       0.00000000       128.000000       0.00000000       0.00000000       0.00000000       0.00000000       63147.0000       126294.000       128.000000    
          65   702.155884       970.977234       75.8733902       0.00000000       130.000000       0.00000000       0.00000000       0.00000000       0.00000000       61320.0000       122640.000       130.000000    
          66   142.168716       511.873230       76.0736847       0.00000000       132.000000       0.00000000       0.00000000       0.00000000       0.00000000       64533.0000       129066.000       132.000000    
          67   1486.68359       325.423584       76.1393280       0.00000000       134.000000       0.00000000       0.00000000       0.00000000       0.00000000       55072.5000       110145.000       134.000000    
          68   117.289574       380.148895       75.9035797       0.00000000       136.000000       0.00000000       0.00000000       0.00000000       0.00000000       64302.0000       128604.000       136.000000    
          69   146.201630       990.837036       75.7189560       0.00000000       138.000000       0.00000000       0.00000000       0.00000000       0.00000000       119721.000       239442.000       138.000000    
          70   289.491516       230.799088       76.6268234       0.00000000       140.000000       0.00000000       0.00000000       0.00000000       0.00000000       85753.5000       171507.000       140.000000    
          71   1525.29150       917.233887       77.1042099       0.00000000       142.000000       0.00000000       0.00000000       0.00000000       0.00000000       74256.0000       148512.000       142.000000    
          72   1072.02991       1029.06860       76.3354645       0.00000000       144.000000       0.00000000       0.00000000       0.00000000       0.00000000       45003.0000       90006.0000       144.000000    
          73   195.155060       956.201355       76.5074692       0.00000000       146.000000       0.00000000       0.00000000       0.00000000       0.00000000       91339.5000       182679.000       146.000000    
          74   1034.09387       359.357391       76.2193451       0.00000000       148.000000       0.00000000       0.00000000       0.00000000       0.00000000       51859.5000       103719.000       148.000000    
          75   1552.73328       757.910950       76.6052322       0.00000000       150.000000       0.00000000       0.00000000       0.00000000       0.00000000       62842.5000       125685.000       150.000000    
          76   1561.99524       115.210236       76.2384720       0.00000000       152.000000       0.00000000       0.00000000       0.00000000       0.00000000       69541.5000       139083.000       152.000000    
          77   1059.01440       559.297485       76.4089508       0.00000000       154.000000       0.00000000       0.00000000       0.00000000       0.00000000       73353.0000       146706.000       154.000000    
          78   1254.35327       295.898193       76.3381042       0.00000000       156.000000       0.00000000       0.00000000       0.00000000       0.00000000       99477.0000       198954.000       156.000000    
          79   214.643326       689.537842       76.3500595       0.00000000       158.124435       0.00000000       0.00000000       0.00000000       0.00000000       126735.000       253470.000       158.124435    
          80   608.652161       1073.15112       76.1841507       0.00000000       160.000000       0.00000000       0.00000000       0.00000000       0.00000000       73437.0000       146874.000       160.000000    
          81   831.602051       514.253052       76.6105576       0.00000000       162.000000       0.00000000       0.00000000       0.00000000       0.00000000       67536.0000       135072.000       162.000000    
          82   1150.75830       618.593933       76.5596390       0.00000000       164.000000       0.00000000       0.00000000       0.00000000       0.00000000       59545.5000       119091.000       164.000000    
          83   1729.96277       960.391846       76.4026413       0.00000000       166.000000       0.00000000       0.00000000       0.00000000       0.00000000       38199.0000       76398.0000       166.000000    
          84   850.299561       242.629929       76.4128113       0.00000000       168.000000       0.00000000       0.00000000       0.00000000       0.00000000       66874.5000       133749.000       168.000000    
          85   1159.10999       831.731812       76.2099457       0.00000000       170.000000       0.00000000       0.00000000       0.00000000       0.00000000       80524.5000       161049.000       170.000000    
          86   1298.25244       1101.05298       76.2618027       0.00000000       172.000000       0.00000000       0.00000000       0.00000000       0.00000000       98416.5000       196833.000       172.000000    
          87   423.256622       637.197693       76.4235001       0.00000000       174.661789       0.00000000       0.00000000       0.00000000       0.00000000       166635.000       333270.000       174.661789    
          88   809.528076       394.856903       76.0578918       0.00000000       176.000000       0.00000000       0.00000000       0.00000000       0.00000000       83317.5000       166635.000       176.000000    
          89   643.747253       541.275452       76.4335251       0.00000000       177.761719       0.00000000       0.00000000       0.00000000       0.00000000       121054.500       242109.000       177.761719    
          90   960.935730       277.983612       76.3111038       0.00000000       180.000000       0.00000000       0.00000000       0.00000000       0.00000000       85144.5000       170289.000       180.000000    
          91   333.051819       375.885040       76.4276657       0.00000000       182.000000       0.00000000       0.00000000       0.00000000       0.00000000       55062.0000       110124.000       182.000000    
          92   355.797668       492.537628       76.3057251       0.00000000       184.000000       0.00000000       0.00000000       0.00000000       0.00000000       55314.0000       110628.000       184.000000    
          93   1259.13916       690.588867       76.0174179       0.00000000       186.000000       0.00000000       0.00000000       0.00000000       0.00000000       74287.5000       148575.000       186.000000    
          94   1693.69312       710.699280       76.7761002       0.00000000       188.000000       0.00000000       0.00000000       0.00000000       0.00000000       80850.0000       161700.000       188.000000    
          95   1009.07220       834.767090       77.0833893       0.00000000       190.000000       0.00000000       0.00000000       0.00000000       0.00000000       56427.0000       112854.000       190.000000    
          96   1363.60120       730.881958       75.7199097       0.00000000       192.000000       0.00000000       0.00000000       0.00000000       0.00000000       52605.0000       105210.000       192.000000    
          97   1039.82263       707.518250       77.0570221       0.00000000       194.000000       0.00000000       0.00000000       0.00000000       0.00000000       72597.0000       145194.000       194.000000    
          98   663.584290       865.133484       76.5832825       0.00000000       196.000000       0.00000000       0.00000000       0.00000000       0.00000000       62065.5000       124131.000       196.000000    
          99   1162.40405       377.628204       76.5152664       0.00000000       198.000000       0.00000000       0.00000000       0.00000000       0.00000000       57204.0000       114408.000       198.000000    
         100   394.980377       121.396027       76.5996017       0.00000000       200.000000       0.00000000       0.00000000       0.00000000       0.00000000       100191.000       200382.000       200.000000    
         101   517.682861       731.746033       76.4357910       0.00000000       202.000000       0.00000000       0.00000000       0.00000000       0.00000000       71914.5000       143829.000       202.000000    
         102   212.928299       162.448761       76.2194748       0.00000000       204.000000       0.00000000       0.00000000       0.00000000       0.00000000       100327.500       200655.000       204.000000    
         103   476.562195       465.535736       77.1694183       0.00000000       206.065475       0.00000000       0.00000000       0.00000000       0.00000000       93922.5000       187845.000       206.065475    
         104   1052.26465       928.687683       76.8739548       0.00000000       208.000000       0.00000000       0.00000000       0.00000000       0.00000000       61309.5000       122619.000       208.000000    
         105   1117.33826       149.096771       76.4911041       0.00000000       209.520294       0.00000000       0.00000000       0.00000000       0.00000000       115983.000       231966.000       209.520294    
         106   1629.54211       822.943542       76.6503296       0.00000000       212.000000       0.00000000       0.00000000       0.00000000       0.00000000       50736.0000       101472.000       212.000000    
         107   920.868042       738.817261       76.4469376       0.00000000       214.000000       0.00000000       0.00000000       0.00000000       0.00000000       59230.5000       118461.000       214.000000    
         108   926.175537       121.594124       76.3614273       0.00000000       216.000000       0.00000000       0.00000000       0.00000000       0.00000000       101881.500       203763.000       216.000000    
         109   1193.69861       434.934326       76.3554535       0.00000000       217.999985       0.00000000       0.00000000       0.00000000       0.00000000       84031.5000       168063.000       217.999985    
         110   1364.72888       268.197693       76.4733505       0.00000000       220.000000       0.00000000       0.00000000       0.00000000       0.00000000       73878.0000       147756.000       220.000000    
         111   248.514374       1086.65942       75.8670425       0.00000000       222.589981       0.00000000       0.00000000       0.00000000       0.00000000       120298.500       240597.000       222.589981    
         112   1634.34570       936.217163       76.3591309       0.00000000       224.000000       0.00000000       0.00000000       0.00000000       0.00000000       54222.0000       108444.000       224.000000    
         113   1318.35083       106.443085       76.3755951       0.00000000       225.380951       0.00000000       0.00000000       0.00000000       0.00000000       123333.000       246666.000       225.380951    
         114   1467.51086       206.802078       76.7388687       0.00000000       227.999985       0.00000000       0.00000000       0.00000000       0.00000000       67420.5000       134841.000       227.999985    
         115   271.832489       568.512939       76.4316864       0.00000000       230.000000       0.00000000       0.00000000       0.00000000       0.00000000       60217.5000       120435.000       230.000000    
         116   838.341431       1053.01294       76.1125870       0.00000000       231.999969       0.00000000       0.00000000       0.00000000       0.00000000       61005.0000       122010.000       231.999969    
         117   330.869415       858.429077       76.3199539       0.00000000       232.923782       0.00000000       0.00000000       0.00000000       0.00000000       194943.000       389886.000       232.923782    
         118   905.242676       929.055115       76.5230865       0.00000000       235.999985       0.00000000       0.00000000       0.00000000       0.00000000       56868.0000       113736.000       235.999985    
         119   1035.48328       438.688110       76.5545883       0.00000000       238.060211       0.00000000       0.00000000       0.00000000       0.00000000       82729.5000       165459.000       238.060211    
         120   737.805237       633.471680       76.4617691       0.00000000       240.000000       0.00000000       0.00000000       0.00000000       0.00000000       103194.000       206388.000       240.000000    
         121   571.207947       749.840271       76.4529266       0.00000000       240.967300       0.00000000       0.00000000       0.00000000       0.00000000       169386.000       338772.000       240.967300    
         122   566.040955       946.056824       76.5498657       0.00000000       244.000000       0.00000000       0.00000000       0.00000000       0.00000000       63483.0000       126966.000       244.000000    
