 #*********************PERSONAL PROGRAMMING PROJECT**************************
 #AUTHOR: PADMANABHA PAVAN CHANDRA VUNDURTHY(62750) (MSc.Computational Materials Science)  under the supervision of DR. ARUN PRAKASH
 #TITLE: Big Data Visualization of Large and Ultra Large Scale Atomistic Simulation
 #Analysis of Average Properties of the Grain separated  in blocks of structure types: 0=Other Unknown Defects,1=FCC,2=HCP,3=BCC,... FCC+HCP, FCC+HCP+0, All structure types.
 #file name->           1 :=Sorted_GrNum_00200.txt
 #file attribites in sequence::==    18632909          11           8
 #file name->           2 :=Sorted_Stress_00200.txt
 #file attribites in sequence::==    18632910          13           9
 #Macroscopic Von Mises Stress:->   650.040405    
 #=======================STRUCTURE TYPE->           0 =======================
 #GRAIN NUMBER| COORDINATES: X Y Z | STRESS XX YY ZZ ZY XZ XY | GRAIN VOLUME | NUMBER OF ATOMS | VON-MISES STRESS |
 #AVERAGE VON MISES STRESS FOR THIS STRUCTURE TYPE IS   285.721100    
           1   427.177643       1135.18884       100.492722      -275.664429      -489.703918      -150.281845       9.44753742       7.43154573      0.720016241       1436030.62       19220.0000       298.002563    
           2   376.532074       1039.19897       94.7097778      -338.664948      -542.133118      -199.763458      -35.6264305       17.1411018      -20.5489254       1126196.12       18456.0000       308.076141    
           3   821.953491       736.545532       96.1681824      -357.193085      -479.965576      -199.123428      -23.3341637       9.25933075      -13.2368860       1348796.50       18212.0000       248.760956    
           4   1282.64355       640.095398       87.6852570      -342.222961      -459.560242      -133.879639       10.2019844      -7.70644855      -7.99548006       1243808.38       14351.0000       286.886047    
           5   466.163971       305.424683       99.8362427      -375.036163      -596.284912      -215.539459      -38.3047943       12.3195038       19.9329243       889871.312       16970.0000       340.187744    
           6   123.103821       909.310730       96.5456696      -341.278687      -477.481506      -134.919952       2.93769431       7.28721189       3.25757694       1529251.50       15004.0000       299.096649    
           7   703.938049       176.592651       88.8864059      -388.503418      -491.373688      -102.038445      -19.9088936      -15.9229469       3.01186490       1206098.62       16399.0000       352.264282    
           8   1502.78394       338.642853       95.1893692      -341.980225      -485.943359      -179.590805      -10.7399960      -4.04999161      -11.0535545       1542920.75       28831.0000       266.899963    
           9   679.358582       340.066437       95.8249893      -435.136322      -632.916077      -276.880157       48.7177315      -5.26361895       5.28589153       1187427.75       27518.0000       320.544708    
          10   1075.65735       804.221313       95.2269745      -392.746490      -635.735962      -276.435944       7.66723442       6.25078058       30.8648415       902636.375       21635.0000       322.468201    
          11   1036.54370       296.831726       97.6963043      -418.646118      -487.525696      -193.241760       9.30613708       7.45138264      0.933052599       882500.938       10986.0000       267.406555    
          12   495.467865       399.241333       110.612694      -282.883362      -484.451935      -130.686249      -58.0160561      -2.63921952       9.20665169       929179.125       15320.0000       323.797455    
          13   493.781525       212.852615       107.543663      -284.942810      -586.918457      -117.552719       21.0508423      -22.9670258      -8.15477848       767559.188       13904.0000       415.773773    
          14   292.119476       431.680878       100.003464      -438.681335      -617.532104      -190.894684       3.66451216       11.4673367      -1.45567560       899715.250       14631.0000       371.677002    
          15   1601.15649       286.199921       96.7510681      -262.560150      -489.489166      -134.567047      -10.1894073      -13.9709997      -24.3949699       1089618.62       18761.0000       315.605347    
          16   338.989380       328.203033       95.4456711      -147.088608      -257.817413      -132.054291      -12.6782169      -17.5805759      -19.2935982       1098556.12       23676.0000       129.142563    
          17   1198.13245       1048.82678       92.0812454      -346.142548      -566.744690      -177.368195       8.30628204      -1.47227252      -24.0583172       1441525.75       28444.0000       341.074738    
          18   383.250671       801.607849       98.4050064      -305.178345      -495.176605      -157.441330       8.27554035      -2.32492995       18.8060741       933394.125       8713.00000       295.428528    
          19   1395.91821       660.188599       105.869949      -419.549774      -537.481445      -187.707306       32.0735664       9.19170094      -3.79441142       1303470.25       21730.0000       313.660919    
          20   1049.18848       1241.78589       92.6408768      -334.609467      -515.455811      -159.207520       35.1034737       20.2382774      -21.6875610       851595.562       12699.0000       318.635559    
          21   413.192017       995.319946       96.7693329      -367.526428      -514.950378      -195.098679      -32.1193428       1.52331829      -33.5141068       1289611.75       25819.0000       288.715485    
          22   1427.09375       1195.30750       100.753120      -341.267090      -489.228912      -145.772064       30.5843430       1.10123181       6.57639933       1132138.62       13054.0000       303.276123    
          23   122.236206       671.169128       103.651649      -271.140198      -436.509613      -127.462166       36.8146744      -1.80819464      -3.35726333       937955.875       16090.0000       275.426880    
          24   873.950623       503.140564       101.842522      -329.958313      -431.337402      -121.208580       8.11865997      -14.0961142      -10.4734116       2098314.00       25637.0000       275.934662    
          25   1471.08093       637.855652       100.577080      -401.608917      -450.550385      -174.889008       13.4948683      -23.6134109      -5.31988049       1956208.88       25601.0000       259.224243    
          26   1310.30859       559.311523       94.5566788      -384.235352      -538.812744      -245.501251      -40.4406624       16.5328255     -0.667794287       1159431.50       19562.0000       265.168152    
          27   96.3454437       101.658791       93.3684464      -359.985413      -462.711853      -244.457382      -33.8678551      -4.37768126       3.30851078       1026928.00       15919.0000       198.238892    
          28   214.688400       355.462830       98.5691757      -341.675659      -601.962830      -179.831268       21.5642242       11.4126377      -24.7695065       847683.562       16132.0000       373.758484    
          29   1566.19446       923.010803       101.021568      -423.685852      -502.619751      -180.536392      -18.4462032       20.7681751       10.3523254       857503.250       11568.0000       295.264648    
          30   1358.77759       776.798584       92.9047699      -273.511597      -490.269806      -163.897263      -51.5044250       7.15612507      -2.46636415       1007652.75       18901.0000       301.478424    
          31   1099.29651       1069.01636       92.7975922      -424.209747      -590.417114      -204.107315       16.3262463      -1.75434041      -1.04565763       1027997.00       13319.0000       336.845306    
          32   1567.08899       1159.57361       96.3871994      -336.575989      -521.911133      -170.996643       12.0700731      -40.1086464       2.11685562       769278.750       14872.0000       312.617859    
          33   1364.17029       124.996841       100.302551      -301.038574      -487.861298      -202.803055       7.90944004       19.3624249      0.878530681       936467.375       16220.0000       253.417191    
          34   554.630615       175.142685       106.751923      -541.260132      -757.614380      -309.516602      -41.7729645       17.9078503       18.3953419       593249.938       11724.0000       397.322418    
          35   878.134094       1148.18127       95.7192612      -311.274445      -400.788300      -202.264923      -31.7619190       32.8369446      -19.4588718       958926.625       16694.0000       192.486008    
          36   530.850220       191.718552       87.4021149      -317.902618      -467.601837      -166.620865      -32.9894981       7.36770391      -6.44993687       859209.750       10090.0000       267.386169    
          37   584.341553       304.588165       99.1234894      -385.758514      -555.122742      -241.996964      -9.28501892       10.8208494       9.52202320       1129357.88       23130.0000       273.096344    
          38   1277.82800       448.971405       94.1406479      -375.893677      -472.382904      -241.056381       24.9344349       9.94001675      -28.2251682       1072679.75       17249.0000       212.257355    
          39   1151.05042       548.978333       91.6344376      -330.875366      -442.641327      -102.441055      -10.3838882      0.400681973     -0.619775593       1445580.75       13559.0000       300.882294    
          40   940.849487       1249.73169       95.1719513      -415.964050      -683.404358      -268.127014       49.2230949       30.1325321      -18.6007671       877961.812       16823.0000       379.405182    
          41   1559.17322       161.583130       100.122459      -388.934204      -446.081238      -136.845215       20.9681549       9.84365177       4.93725395       872846.438       8140.00000       287.929840    
          42   1452.37158       484.566467       95.6774902      -211.573914      -381.282684      -110.853935       14.0303774       2.01053524       7.04714394       1332366.88       14800.0000       238.307175    
          43   209.668411       507.755829       97.9343491      -411.036530      -588.023010      -180.254471       52.0329742       35.0399742      -36.6392746       833249.375       13751.0000       375.849548    
          44   795.095093       608.861450       91.6130753      -313.151215      -478.317810      -159.844208      -30.6856766      -3.75016236      -15.9030704       1686516.75       25172.0000       282.364990    
          45   641.178772       717.816772       98.9791336      -341.945679      -486.315735      -179.161514      -3.59386325       2.73575115      -13.6958656       1192584.50       20123.0000       267.332184    
          46   1447.66943       147.776169       100.186302      -386.458282      -496.899414      -217.025925      -8.18073177       15.1908617       3.17926478       794846.875       9782.00000       246.049286    
          47   772.253601       1127.14685       96.2510147      -306.992950      -451.557343      -127.894577      -32.0136375      -6.25593662       25.3521919       1099562.00       16792.0000       289.804382    
          48   881.222168       544.205139       97.2734451      -344.249023      -554.688171      -161.996643       11.9160862      -15.6685534      -6.74093008       1252731.00       16445.0000       342.275360    
          49   1332.40857       697.860596       97.5034409      -340.376007      -465.439087      -183.766922       7.97999716      -17.2738953      -13.2800074       1349892.50       22075.0000       247.726624    
          50   989.883545       503.774841       95.3593521      -295.612915      -480.025970      -238.368790      -38.3168106       14.8114691       11.4702892       887350.125       17846.0000       230.865768    
          51   732.673584       1021.60272       99.3232422      -394.156677      -614.205627      -231.706985      -26.5644588       20.4555683      -6.28736115       845323.688       15095.0000       337.711761    
          52   158.236984       246.009750       99.3064728      -345.845459      -519.867615      -235.534164      -13.1034269      -12.7864952       15.0996504       1282148.88       20294.0000       251.671371    
          53   731.810547       912.513672       96.1021118      -316.890472      -490.607361      -165.929764      -3.08585334      -18.5112724      -8.47087860       1475250.75       17479.0000       283.659943    
          54   566.953979       489.054718       98.8484421      -417.388702      -611.125061      -167.100800       9.60119724       32.4929008      -1.40261698       1251715.88       21327.0000       390.022430    
          55   1570.81641       1129.45288       98.7379456      -407.947693      -498.716614      -183.685043      -7.25062561       12.9314404      -16.3983326       870698.812       12222.0000       283.469421    
          56   704.562927       1219.80188       101.096840      -451.476776      -648.802979      -308.740234      -35.6463203       27.3579960       7.77284479       1049609.62       19715.0000       306.130066    
          57   500.398834       109.979584       101.546272      -334.802979      -525.734680      -164.085098       33.3215637      -43.3486748       9.42752647       738381.125       14931.0000       327.765015    
          58   840.690002       920.030151       94.2639999      -480.322083      -801.638000      -338.783783      -28.3885670      -11.9551983       48.6417313       838853.500       20237.0000       422.729309    
          59   1490.63049       699.037231       95.7678833      -278.212463      -491.371307      -171.343369       7.06660843       4.78264666     -0.825715303       1244809.00       21930.0000       282.592041    
          60   1300.50146       979.315613       95.2310410      -280.746368      -500.391663      -183.696472      -12.2332344      -34.8431931      -20.6091347       1265452.62       22361.0000       290.421448    
          61   1216.25806       918.411865       89.9543152      -369.902222      -505.475677      -180.045700       31.7228374      -18.6149445      -33.5369606       960080.750       15947.0000       295.969452    
          62   1332.17969       1167.05981       93.1389313      -327.335083      -402.748138      -138.337448       3.18807220      -2.32485652      -13.4926643       1360928.38       13352.0000       237.177139    
          63   585.312317       147.557114       89.0619354      -322.094543      -457.896790      -147.176102       6.32485771       6.16266775       5.66726351       801277.250       10029.0000       270.413269    
          64   383.457367       320.167633       95.7909775      -382.102631      -568.275391      -188.930954       21.4694252       4.51886892       11.1072311       1016996.94       14860.0000       331.290009    
          65   668.294128       1052.41736       97.3887024      -180.798065      -385.179657      -136.591553      -12.4207077      -3.22886515       10.5515776       969279.938       14494.0000       231.493317    
          66   133.163635       570.044250       97.9949417      -374.991486      -491.539581      -171.992218       2.85680842       1.52380705      -2.56672549       989404.250       13166.0000       280.183075    
          67   1371.26135       350.979614       95.0870514      -405.116150      -550.150574      -263.733704      -29.8628330       27.8299103       16.1693649       1005789.12       22806.0000       259.446594    
          68   122.961479       422.571350       94.3047028      -157.778503      -416.071350      -37.6493568       39.7235031       7.27375746      -10.9426584       928472.375       12938.0000       342.675537    
          69   116.991913       1078.90320       97.0585327      -330.276428      -514.610718      -163.874390      -28.7145519       6.32923985       6.65242529       1721511.12       22916.0000       308.332428    
          70   285.045380       259.410919       98.3921738      -343.342163      -477.001373      -141.987411      -18.9027023      -2.28788948       3.08694720       1274521.75       17385.0000       294.002838    
          71   1399.33411       1026.87927       98.4085541      -335.622467      -470.836121      -156.832825      -30.8805046       13.9806089      -19.2628937       1226528.00       23897.0000       281.040283    
          72   1006.77374       1130.55383       93.3921738      -197.385757      -523.053650      -109.831253       35.6158638       10.6066580      -40.6368103       736175.688       13674.0000       389.019409    
          73   263.462280       974.001526       100.014793      -400.328735      -529.784363      -237.574371      0.135412544       4.08004332       8.03356934       1399863.62       23153.0000       254.088211    
          74   946.320862       415.127808       89.3287201      -369.106232      -550.687500      -199.183960      -26.3978500      -5.62313747       15.4983778       780671.312       12737.0000       309.202271    
          75   1418.34131       844.634155       96.2447433      -224.318100      -387.303192      -172.083649      -60.4793053      -10.7463894       22.9297295       1017012.69       16525.0000       225.173325    
          76   1270.55273       195.318146       100.762108      -385.643402      -532.874207      -249.200027      -15.2389965       8.44938660      -7.51055193       1040058.06       16751.0000       247.916229    
          77   959.879333       617.758850       97.2869034      -267.392578      -420.556854      -173.169662      -9.09206676       5.44644785      -23.1899529       1134986.00       17704.0000       220.724152    
          78   1158.69519       329.873352       95.2891998      -415.721863      -586.372803      -197.367859      0.746920884       2.30950952      0.791207552       1456687.62       21141.0000       337.760406    
          79   182.969223       752.882935       98.8826523      -192.225006      -397.803497      -94.6429367      -10.1531601       17.6771107      -13.1758270       1774211.00       22387.0000       271.317261    
          80   553.056458       1181.31812       98.9387665      -332.433319      -451.026001      -152.886459      -36.7567444      -13.8987055       2.49256277       975227.062       10575.0000       268.785370    
          81   766.460144       556.664795       97.4684677      -273.529846      -367.878418      -136.214996      -31.7930679      -26.8998108       11.6654501       1064754.88       16895.0000       215.229935    
          82   1063.76453       695.042664       102.379501      -295.593567      -398.385925      -64.8069000       3.12316608      -11.7217340       15.3079853       780216.500       7906.00000       297.819275    
          83   1602.03418       1087.87366       99.2498932      -210.641373      -348.268677      -116.338348       32.9277420       24.3493824       21.3816071       667180.375       13878.0000       217.292236    
          84   765.910400       291.987274       89.2315521      -415.002502      -553.746704      -136.248810      -7.11532402       4.24444675       15.4692612       855338.188       7843.00000       369.530579    
          85   1068.82288       914.216003       94.1423492      -220.318222      -393.683136      -75.8499298       14.8690910      -12.9029627       11.7038460       1229986.12       18428.0000       278.470612    
          86   1212.51538       1068.72803       96.1427994      -243.327179      -476.686646      -114.879395       19.6126518       1.16664016       14.3471241       1488718.88       22481.0000       320.477051    
          87   396.185822       707.171265       100.154976      -350.594513      -558.400391      -189.299484       11.3435259      -3.22651958       10.6782818       2394028.75       35510.0000       321.678040    
          88   765.981262       434.750061       98.5121002      -277.225372      -424.366943      -137.468414       10.9582300       7.93522167      -25.6817303       1285458.38       18611.0000       253.524185    
          89   604.156189       616.433228       95.0853806      -288.778412      -484.787872      -194.128983      -21.7180805      -8.94056606       13.2501507       1935735.00       34201.0000       260.982605    
          90   862.599243       338.625763       87.6647568      -378.315552      -542.459900      -194.362717       5.42300367       9.46469498      -7.26242828       1324340.38       19885.0000       302.476471    
          91   299.979401       428.949158       101.729805      -444.625275      -591.477905      -217.545593      -13.3598537       7.79823017      -29.7099113       975983.938       15665.0000       331.427307    
          92   326.065948       549.520935       95.2731628      -284.860168      -512.932312      -107.967758      -15.4474373      -7.37940645      -2.44565916       895519.812       15748.0000       352.915344    
          93   1160.60596       750.157776       88.3281326      -345.471893      -471.344208      -128.408691      -2.49028063      -10.6545038       23.5250416       1167840.25       14971.0000       303.812378    
          94   1565.11426       791.310730       105.575829      -245.660156      -392.538696      -83.7577744      -11.7953100       24.2561264       8.54913807       1304008.12       21582.0000       271.969482    
          95   935.874023       938.275085       100.892647      -342.455353      -473.169861      -138.200577      -23.1943722       21.8766308       11.5582151       815197.938       10612.0000       298.254639    
          96   1259.68054       798.851074       92.6130524      -372.675507      -588.997620      -214.187225      -22.7048740       6.66808748      -11.4705057       1026019.38       20521.0000       329.048553    
          97   963.365601       761.011108       97.9511108      -362.040100      -514.546448      -132.860794      0.204815224       10.7432413       1.67709041       1124608.12       16911.0000       333.297852    
          98   609.502258       975.788025       101.561890      -489.201752      -618.524048      -265.403931       21.1005211       15.3466644      -7.71997213       863049.688       10708.0000       313.006104    
          99   1066.94751       418.450317       96.0011368      -245.026047      -363.895172      -111.491714      -52.2952766      0.683075011       9.16637802       789091.625       10363.0000       237.259888    
         100   363.274048       112.861763       99.3541489      -335.001953      -496.769440      -120.885994       12.0996742      -11.4443922      -10.8631392       1367742.75       14766.0000       328.386230    
         101   481.666046       701.965027       108.579651      -376.886383      -522.592834      -188.019791      -30.5032959      -23.1445789       3.91525459       1081857.38       16180.0000       298.101349    
         102   220.092514       251.186508       98.7207794      -313.232635      -491.074768      -167.240753      -21.2664032      -3.86690378      -13.9126453       1500685.12       21894.0000       284.406891    
         103   415.329712       518.338318       96.9797516      -355.041534      -525.738831      -131.729858      -5.78908300       5.64427662      -7.45631123       1342740.88       16242.0000       342.764160    
         104   990.247559       1034.95422       95.7652435      -335.884766      -470.121979      -121.835419      -19.0717030       9.04286766       1.63650632       983448.750       17727.0000       306.455048    
         105   1010.59088       152.102097       95.9461212      -351.626068      -468.394836      -175.647873      -18.9570408       11.3447180       8.86710072       1692514.38       23487.0000       258.557770    
         106   1510.70129       923.701904       104.734337      -334.520752      -439.337524      -158.085693       8.17240334       22.1019840       5.53459072       781639.125       10662.0000       249.733841    
         107   867.509338       818.664185       96.0986633      -180.915771      -393.193909      -121.323036      -13.9868650      0.804618061      -5.45776844       949037.688       16512.0000       248.880981    
         108   822.543457       111.806389       86.3327026      -305.974060      -421.068542      -97.8649597       4.91701126      -11.3969097      -2.48402452       1348946.88       15180.0000       284.585754    
         109   1104.36792       591.731873       97.9452133      -409.743866      -504.482910      -285.732758       8.34175682      -12.9705858       13.1894884       1388357.00       25806.0000       193.231186    
         110   1229.19092       294.894104       94.4132462      -306.596497      -546.672668      -184.474518      -64.6653671      -11.5118008      -28.0184097       1175243.75       20710.0000       342.295776    
         111   242.688004       1199.37512       97.9838638      -362.506775      -532.742798      -182.650162      -1.84412766      -15.5752668       20.1043720       1791476.88       23638.0000       306.426697    
         112   1512.94861       1032.58362       102.942406      -279.837738      -529.871704      -163.063293       42.8880959     -0.529850185      -27.5582275       872113.500       18385.0000       336.375092    
         113   1233.64062       94.5455093       102.688408      -283.674744      -483.720490      -90.4217606       53.1646500      -8.08766556      -7.34053612       1056638.00       16783.0000       353.357849    
         114   1326.39978       215.480362       98.5394135      -286.774353      -387.539337      -168.092850      0.591049731       2.61127305      -25.4817677       621909.938       10977.0000       195.364487    
         115   242.381088       631.314514       96.7571716      -538.202393      -686.115051      -262.517181      -45.0749626      -29.5531673       38.5659943       802723.625       19985.0000       389.660461    
         116   435.838806       1172.62939       105.840431      -164.578522      -402.304810      -64.0436630      -32.7807732       27.2840004       47.8316727       640331.375       11343.0000       320.688965    
         117   269.286285       937.230408       90.3317566      -210.803329      -451.378815      -85.8088531       3.03971887      -6.15927029       2.45450687       1936328.50       34479.0000       322.072021    
         118   840.191772       1031.72534       96.4440155      -70.8534775      -456.235748      -126.186951      -4.04778671     -0.552818894       3.28939629       807157.562       20396.0000       361.025299    
         119   934.000732       339.097382       92.6054077      -396.916016      -589.645386      -221.463821       27.8198586       1.58458173      -18.2127590       948614.312       19593.0000       324.140930    
         120   675.399597       725.750854       94.9316025      -117.393791      -398.179901      -77.4161987      -53.6834297      -18.7786617      -3.13121176       1089604.50       21310.0000       318.429352    
         121   501.824951       824.577332       96.0981216      -186.853729      -454.497009      -82.1883469      -38.6222534     -0.656121373       2.85824084       1373960.38       20114.0000       339.266235    
         122   542.233826       1043.98950       91.8975220      -261.678986      -582.269958      -106.997055      -37.3087311      -8.07558918       19.2336216       754425.688       18196.0000       426.351898    
 #=======================STRUCTURE TYPE->           1 =======================
 #GRAIN NUMBER| COORDINATES: X Y Z | STRESS XX YY ZZ ZY XZ XY | GRAIN VOLUME | NUMBER OF ATOMS | VON-MISES STRESS |
 #AVERAGE VON MISES STRESS FOR THIS STRUCTURE TYPE IS   1030.99268    
           1   407.309570       1144.47754       96.6803818       138.757050      -1164.38000       98.3988876      -92.2744675       79.7572937       80.9235840       2821354.75       161402.000       1308.23401    
           2   371.506317       1042.42297       99.3389893      -30.4127426      -1049.53101       51.2429314      -93.9315033       21.9569530      -57.5206795       1804501.88       103151.000       1079.96667    
           3   831.291565       707.645203       97.4361877       89.7222443      -961.417542       87.1969376      -72.9458923      -13.9836931       40.9580154       2733256.25       156462.000       1060.10828    
           4   1284.70374       662.882874       94.8503952      -239.263214      -1177.98193       85.2515411       196.417862      -37.7570076       129.939926       2301671.00       131476.000       1209.04944    
           5   457.152802       277.562561       100.930122       15.4298182      -1166.85828       134.575806       8.42510700       73.8829651       32.5743294       1151832.25       65796.0000       1254.04858    
           6   103.414742       922.665466       97.6904068       234.786270      -826.400879       80.4043274      -37.6682892       33.8449631      -105.686684       3411190.75       195506.000       1013.57086    
           7   686.209595       157.525040       94.1127396      -73.2690887      -839.071777       77.7813644      -250.699692       3.63751793       5.25801611       2340635.00       133892.000       955.833923    
           8   1493.07544       334.560181       95.7850571       184.308624      -879.413940       45.1173210      -47.0669479       17.6139412      -51.6771584       2480171.00       142020.000       1009.16168    
           9   678.354980       350.498779       96.8355408      -138.986145      -863.200256       213.399368       206.992889      -116.662521       32.3282547       1437913.00       82184.0000       1037.48157    
          10   1072.23071       789.237244       95.6272430      -97.2726212      -1030.64465       5.00338221      -129.474228       22.5374756      -33.6381569       953175.500       54411.0000       1016.02875    
          11   1011.44531       287.574341       94.6389771      -279.524811      -710.067200       122.706909       29.4477482       33.9595222       19.8654480       2016233.88       115414.000       726.347046    
          12   490.176086       413.689789       99.0427322      -122.126717      -1017.69006       102.638428      -131.649918      -51.6385498      -29.8750839       1502074.75       85833.0000       1056.65356    
          13   503.721558       214.321167       101.254547       154.303589      -1148.26904       19.7202206       47.5154343       42.3211632       10.7267675       1197740.00       68420.0000       1245.79102    
          14   291.828094       626.489624       99.2935486      -56.2446632      -1172.27100       104.135010      -138.422638       133.576904      -129.208603       1657836.50       94718.0000       1269.37769    
          15   1598.18469       306.933624       95.6402740       453.404907      -750.117676       61.9566078       66.8353958      -34.4220734       4.09397984       2101602.25       120515.000       1071.25500    
          16   186.251663       328.036804       98.7404861       508.987701      -220.367004       62.3855515      -79.2936401      -88.2820282      -38.3991356       1568999.75       90035.0000       672.567810    
          17   1194.35217       1041.22192       91.0039902       198.660965      -889.825134       123.728668       120.674789       48.5876007      -99.5867310       2164991.25       123842.000       1090.58521    
          18   501.955963       807.923828       100.690063       498.000092      -981.322266       30.7726421      -59.5614891     -0.225173846       2.56939268       2166524.50       124145.000       1313.84131    
          19   1369.90417       683.732483       103.638557       7.91143656      -1069.82629       86.5843277       76.5009995       98.8235779      -48.5235481       2142639.25       122495.000       1142.98547    
          20   1063.75012       1228.24023       97.3861694       154.748032      -750.084717       87.9814911     -0.164106250       112.749535      -10.7570915       1576533.25       90298.0000       895.126892    
          21   433.597290       1002.23895       96.0574417       33.3726120      -881.229919       135.481750       156.473419       44.0671997      -151.846924       1934051.88       110731.000       1043.43823    
          22   1448.56250       1197.03320       97.0398788      -64.8511581      -1146.92383       55.4048080       12.2843618      -100.098450       51.1626701       2403268.75       137406.000       1163.54333    
          23   76.0803146       651.864502       99.3984985       285.277954      -560.775391       111.569099       266.091034       35.5269928      -34.6431656       1671890.00       95863.0000       904.883606    
          24   1251.15552       496.167816       101.625237       53.6710243      -672.023010       69.9219360      -196.488052      -25.7490807       56.0962181       3500470.25       200516.000       816.052185    
          25   1464.08008       645.578796       100.892181      -144.238739      -666.460266       54.8869133      -82.2853394      -135.138367       77.7209702       3531686.50       202142.000       713.845520    
          26   1315.81506       554.359985       93.4763184       204.655304      -981.800537       181.795685      -168.417374       12.8767624       26.7573109       2232226.00       127779.000       1211.94739    
          27   88.8172760       97.3775406       99.0154190       226.798538      -419.258514       130.817017       62.8245316       13.3211775      -72.5664902       1930412.62       110724.000       626.708435    
          28   206.631241       379.629791       98.6284943       99.0323410      -1501.90210      -74.4648972       104.959366       21.0780525      -117.152054       1213726.12       69263.0000       1546.25049    
          29   1597.98987       929.350403       103.344086      -167.050797      -892.645386       83.9336319      -275.189972       64.2759857      -56.3911896       1636672.25       93613.0000       1010.30505    
          30   1360.48901       781.856140       93.7874451       358.290833      -926.236511       78.8447189      -100.446495       15.9465179       73.2819748       1372023.12       78516.0000       1190.07837    
          31   1099.58411       1098.96313       96.6758118       340.342316      -1012.53680       90.5152588       122.443176       46.9857330      -40.0891876       2270039.25       129949.000       1269.30334    
          32   1555.49719       1159.48108       97.4288788       154.002579      -692.358826       180.976303      -11.3416920      -51.1470909       23.8690357       1245403.50       71352.0000       865.926086    
          33   1369.56543       102.720444       102.185638       204.303040      -740.240479       39.2172775       70.9463348       36.1049309      -68.9400177       1537119.50       88069.0000       892.610779    
          34   562.951050       130.852783       104.073112      -319.971191      -1584.05151      -9.87368107      -293.023102      -99.5949097      -61.4581337       952396.500       54250.0000       1544.25513    
          35   877.206543       1141.71948       95.2880859       419.774902      -479.984009       142.685349      -187.135147      -16.4469891      -11.6034737       1692993.25       97102.0000       862.151428    
          36   662.812073       189.790451       96.5082016       143.691071      -623.795776       93.2489929      -225.798126       14.9967079       23.7535076       1742893.75       99893.0000       841.539429    
          37   584.682617       304.968506       102.397118       101.376724      -677.815796       137.547348      -7.90705395       62.4946556       82.4301529       1618437.25       92647.0000       817.876343    
          38   1266.64197       444.764496       93.0986404       50.7375374      -804.446533       124.143105      -73.3950272      -5.47656393      -104.801933       2114594.75       121083.000       921.251465    
          39   1142.63391       548.374634       93.8963013       229.897629      -1051.57520       99.8745422      -54.7679939       72.7036285      -100.095070       3629370.50       207780.000       1243.93347    
          40   930.922852       1231.84338       92.3443985       48.4992256      -998.160217       53.5018463       77.5196991       38.7238235      -20.5008163       1394883.62       79763.0000       1060.44543    
          41   1552.30017       162.742065       97.4323349      -85.6831589      -838.643372       31.0645351       212.426193       52.6778107      -64.4906769       1960463.12       112255.000       908.109070    
          42   1441.82190       473.841522       94.6258240       422.656616      -890.837830       108.645485      -77.9898834      -45.1614151       52.2714996       3251825.75       186410.000       1201.65784    
          43   209.240921       492.736542       97.0352402      -102.358154      -1194.21265       7.05837011       304.138641       141.903229      -57.8068504       1523801.25       87040.0000       1292.87292    
          44   791.937195       885.059021       95.8512344       86.3111572      -816.031860       96.9630432      -181.611938      -12.6228571      -82.6523895       2957246.75       169297.000       971.529175    
          45   632.696899       854.172241       98.8699951       226.180466      -915.554199       160.700867       141.873230       29.4751797      -15.3219566       2165906.25       124056.000       1138.76245    
          46   1454.44324       167.538818       98.9478683       175.100372      -868.440796       91.3074112      -107.927376      -12.1095371      -30.9726830       1798217.25       103034.000       1023.14264    
          47   761.848938       1112.04224       99.7038269       322.051453      -928.727600       166.880951       165.403595      -96.3643036      -83.7834778       2077226.75       119006.000       1235.08472    
          48   874.377563       512.500061       93.3242340       470.708008      -1036.26794       31.7322617      -32.2608795      -169.155655      -76.4416580       2540155.50       145521.000       1381.53662    
          49   1330.38904       794.462402       99.2318497      -122.182434      -646.972412       98.7975235       131.207031      -20.1133099       73.1771698       2422732.25       138706.000       713.532715    
          50   1002.31085       496.360901       95.2280502       386.148224      -584.154541       57.2098808      -415.941132       72.1920395      -7.27497578       1368416.75       78434.0000       1124.87024    
          51   593.628540       1025.62659       100.587837       57.4191895      -1294.07361       23.9980354      -252.672165       124.731918      -15.7129183       1187040.12       67809.0000       1421.76855    
          52   138.080246       246.455109       95.0115280       85.8241653      -829.940308       68.8916931      -149.618484      -19.3563328       126.658821       2147837.25       122907.000       969.439819    
          53   719.692383       891.779724       96.8855133       212.021790      -635.059021       81.7682343       27.6841888       35.5684929       7.81291676       3077423.25       176492.000       794.011597    
          54   588.648682       465.996796       102.595062      -72.4407578      -1187.22888       82.7831421       173.347427       33.4416237      -95.7123566       2216807.00       126659.000       1249.34961    
          55   1584.89185       1238.63428       97.9826965       134.929001      -908.652466       101.358109      -157.518097      -17.9775543       11.3637676       1848515.75       105865.000       1063.46045    
          56   682.913391       1204.48901       97.7383575      -128.052322      -1092.18091       90.8971176      -3.37758565       137.514740       61.5012817       1931300.00       110386.000       1121.02209    
          57   485.907196       113.046173       104.765800       271.354065      -872.156616       105.711494       142.285477      -71.1525650      -30.6828728       1031297.50       59010.0000       1106.52075    
          58   829.663818       919.302368       95.7071762      -172.983765      -1399.83728       167.624603      -48.6912880      -52.5017662       35.7044563       1075175.75       61351.0000       1434.66589    
          59   1477.16040       532.365112       97.6279907       333.090363      -688.871399       107.562569       27.2000809       87.1743698      -55.2925720       2095852.75       120206.000       948.144165    
          60   1317.08447       946.019714       94.8439636      -31.8287487      -843.027283       93.0686417      -49.9368362      -101.823418      -27.4962101       1950417.00       111520.000       903.223267    
          61   1206.45496       903.755493       95.0351715       88.4337463      -1057.27002       99.4019623       20.8356075       71.6228714      -84.2657623       1666625.88       95273.0000       1167.61194    
          62   1307.88562       1148.42407       94.6171646       299.557556      -609.345215       47.6533165      -6.52299786      -27.8171978       32.4151611       3366272.25       193030.000       816.213684    
          63   597.949951       148.764771       101.160614       92.0272141      -881.957825       71.1346054      -226.761551       86.3714447      -89.7746658       1393773.62       79767.0000       1062.80542    
          64   381.900299       334.010925       96.1994400       99.2669220      -1368.07080       104.266022       102.391945       88.9740067      -45.4962921       1791608.12       102325.000       1490.58777    
          65   649.161072       1068.61609       96.1774902       516.416992      -1027.30481       65.9477081      -342.954346      -33.8472137       128.200516       1697307.00       97246.0000       1515.32056    
          66   119.675232       562.832153       100.695297      -488.882050      -956.913147       53.9844437       123.657219       125.316116      -47.3378296       1653264.12       94450.0000       931.420349    
          67   1368.13037       358.064026       92.3914413       20.7904816      -1054.46875       77.5754700      -173.964371       44.5306854      -10.2350483       1356468.00       77563.0000       1147.83252    
          68   107.115189       420.470673       97.9053574       517.681396      -838.552368       114.514381       210.537628      -57.8780022      -13.4766397       1894108.00       108586.000       1264.39624    
          69   139.591293       1098.22742       97.8744125       126.606323      -871.595825       22.4220657      -213.152039      -12.4575653       18.1222916       3434497.50       196617.000       1020.30249    
          70   272.095978       259.149597       98.3726196       39.8422470      -1213.66797       102.125900      -81.9537201      -47.4798889       79.6593018       2505678.25       143145.000       1303.52966    
          71   1404.78699       1029.94946       100.005737       329.607666      -794.418640       67.6462708      -289.782898       53.3989754      -13.4046392       2156396.25       123512.000       1139.57153    
          72   995.454651       1138.44507       94.3869247       496.260773      -1450.20947       56.1294785       129.188812      -12.8658304      -118.804672       1266294.00       72383.0000       1794.06494    
          73   135.332169       1106.52478       100.444237       27.7235985      -788.690308       82.6384277      -27.4720116       20.1995392      0.504232705       2667038.50       152675.000       847.271790    
          74   945.429626       389.789703       94.2929153       281.603424      -1073.44971       192.290619      -90.2922211       73.1401062       37.1380959       1577767.62       90317.0000       1329.57373    
          75   1430.65063       863.108398       99.3907623       242.447052      -570.673035       38.9288254      -144.170044     -0.285483569       111.679085       1748248.12       100186.000       798.042053    
          76   1365.07263       100.757431       97.4799728       33.2731018      -1331.30334       104.466820      -4.10829926      -18.7072163      -16.7407837       2094387.38       119686.000       1402.22241    
          77   983.667908       616.481750       98.3289719       151.613907      -577.346619       153.354523      -70.5789490      -21.4802608      -107.794304       2013485.75       115414.000       764.095886    
          78   1142.17468       317.141815       94.0280762       214.229767      -1087.48340       62.2968483      -170.822586       32.1985970      -41.6916275       2683869.75       153656.000       1271.07568    
          79   184.181381       755.721802       97.4970627       628.174866      -810.737366       90.7826004       137.798508       44.8719559       64.6617661       3869866.25       222012.000       1289.01038    
          80   564.307983       1183.50061       95.8824310       278.050934      -768.364746       46.9531441      -117.067963      -126.130859       117.394966       2191778.00       125640.000       1018.21118    
          81   769.774109       583.177063       94.2066879       217.454025      -693.768738       22.9555531      -156.455734      -5.14822674       174.835739       1763663.25       101075.000       925.279663    
          82   1067.61414       677.914978       94.5208511       68.3130417      -767.676147       99.4878006       11.1212778       65.7559052       7.69448853       1885432.62       108002.000       859.902161    
          83   1601.53882       1067.12305       102.770714       293.627350      -501.850800       24.2495747       115.120911       81.4490356      -29.2830715       955299.125       54766.0000       743.840393    
          84   769.938110       262.455933       92.3156586      -66.6306152      -1372.29382       141.310013      -53.0131226      -42.8595581       81.8105469       2191660.75       125217.000       1433.00977    
          85   1078.87231       926.003540       95.3154068       363.580811      -901.726624       102.618042       74.4936829       2.39268589      -71.2441406       2248278.25       128753.000       1170.81104    
          86   1196.44958       1186.30884       95.4799347       320.317719      -895.813171       57.0034790      -27.6109886      -102.919037       16.0485268       2807376.75       160784.000       1123.79749    
          87   385.127258       708.629272       97.3645859       112.239944      -1197.41907       54.8806953       47.1522102      -12.6884089       4.89884996       5026089.00       287494.000       1284.75708    
          88   744.371521       444.245392       94.8895187       226.550385      -650.484802       64.9373474      -79.5908051      -96.6172714      -145.155853       2313908.25       132580.000       873.949951    
          89   597.019775       605.574829       98.5070572       180.825729      -976.463989       74.1991730      -110.818283       31.3653355       113.836647       3173933.50       181708.000       1142.78638    
          90   873.513855       297.554138       94.0100632      -141.562012      -779.904907       77.8080597      -36.1895485       38.8394127      -34.2989883       2469735.50       141317.000       779.501099    
          91   310.924133       416.331024       96.1414413      -227.076614      -1220.77002       29.5242481      -25.9970856       6.59617424      -187.959824       1362820.12       77777.0000       1190.12524    
          92   320.704071       558.823181       93.0906372       515.783081      -767.281555       205.805908       43.5308609      -117.834000      -16.3001442       1382404.50       79297.0000       1180.15100    
          93   1167.65662       746.296692       90.5437775      -149.587616      -822.359131       80.3840485       3.77106881      -24.9153481       116.084930       2032268.75       116251.000       838.187927    
          94   1542.62817       786.176270       103.909828       548.567871      -992.359070       138.595657      -152.036560      -46.9556198      -62.0501404       2155373.50       123477.000       1413.61462    
          95   937.995422       924.117126       95.1179810      -106.579666      -853.523926      -26.3284931       47.7336159      -50.3705292       118.008575       1374922.88       78661.0000       824.945007    
          96   1264.57874       796.825317       92.8199692       427.182068      -1235.41248       55.0739822      -112.646187       4.15737534      -14.8363028       1283522.50       73372.0000       1524.07349    
          97   971.998718       789.098511       101.390289       98.4996262      -867.213074       82.3317261      -31.6464100      -110.729500       75.4412155       1972033.00       112883.000       986.970398    
          98   614.477844       945.185242       94.3036423      -154.957718      -1338.62646       23.6464806       168.412567       3.16563368      -56.4278336       1961069.12       112045.000       1318.73047    
          99   1064.70984       408.020599       93.8270874       552.343262      -385.619995       76.2445297      -289.186829       62.8084984      -6.38940620       1751289.12       100598.000       960.586426    
         100   371.247437       135.128555       102.387383       305.370178      -1094.41663       123.223030      -37.7223358      -8.08003998       78.3897018       3040553.50       174029.000       1326.84326    
         101   477.411194       844.037720       101.129829      -185.652237      -949.043457       107.552284      -144.917755      -87.5814896       31.7722473       2062133.38       117880.000       990.761475    
         102   206.028656       181.341537       98.7819977       322.889404      -1096.57239       129.643234      -93.4028091       30.8942223      -46.3334236       3013286.25       172410.000       1346.62036    
         103   438.461731       530.284363       98.6577301       112.697433      -1277.28625       86.1916275       15.7069998       29.3536587       54.9644508       2630847.75       150425.000       1381.41333    
         104   978.141907       1031.89014       97.0342712       280.484558      -805.737610       85.0377960      -78.3955307       30.5699005       26.7873020       1529577.25       87634.0000       1014.48181    
         105   1019.59869       166.615417       96.1889801      -83.9933929      -852.545715       44.3070259      -52.9486923       17.7481213       18.4268970       3222057.25       184335.000       846.234924    
         106   1501.83130       925.900940       101.856422      -106.391182      -882.964050       59.6258965      -9.09296703       35.5446587       40.7475929       1500041.75       85786.0000       876.681763    
         107   857.917847       817.580750       96.6753922       856.919495      -977.241272       190.253952       180.999557       88.1871033      -71.1121674       1743852.88       100057.000       1650.03064    
         108   839.131714       136.124329       92.1559601      -26.4629269      -1062.97290       100.247528       132.053452      -68.1424866       51.9528008       3276034.00       187353.000       1138.45813    
         109   1093.59753       328.347107       99.3126678       38.0631409      -677.712952       169.601883      -127.473045       2.48627496       53.1192055       2342829.25       134202.000       825.240479    
         110   1256.13501       297.002197       96.0242004       204.781921      -911.053650       60.6976051      -246.836945       47.9019012       36.6364708       1951439.25       111771.000       1139.63623    
         111   236.773285       1190.86316       96.9400024       17.8414822      -977.478027       5.20955276      -42.2146149       10.2593222       27.1390114       3432836.25       196368.000       993.035400    
         112   1510.03186       1049.56396       100.928078       403.452301      -1014.16669       90.2634659       150.099365      -80.3369522      -31.5808163       1501563.25       84038.0000       1324.27039    
         113   1212.85681       128.934280       97.3908768      -34.0178413      -963.390686       66.5174713       128.461884      -39.6751022       5.51484537       4344157.50       218678.000       1010.74084    
         114   1353.48242       233.398804       97.3413086       233.781067      -555.255310       63.7772293       16.7307396      -34.9351044      -25.6368523       2293749.75       116508.000       723.749512    
         115   239.043304       631.089783       98.7115479      -180.897141      -1006.23511       139.425903      -124.086395      -60.3820152       68.3787537       1887179.25       95261.0000       1057.97998    
         116   741.196899       1176.12708       99.7332687       47.8515739      -823.317200       81.5635071      -125.215050       12.7708082       40.4757614       1941143.88       96699.0000       917.540649    
         117   302.970490       944.212830       96.6585770       266.243927      -1002.88849       19.3892059      -26.1264629      -41.1518822       27.6189499       6440036.50       326461.000       1169.51257    
         118   840.600464       1023.35828       97.0819778       365.426727      -957.490417      -9.35534668       110.330093       34.4812355       11.4536076       1762656.88       89655.0000       1198.01685    
         119   949.369629       507.846100       93.0308990      -65.9225159      -982.679199       77.0218658      -53.6738930      -3.49112487       61.4589005       2550594.75       128937.000       1005.94830    
         120   687.359985       706.581543       94.9776382       127.950836      -781.773682       32.0389671      -133.981430       10.8014059      -30.1974602       3497757.50       180814.000       898.044067    
         121   526.642212       828.575562       97.1450424       539.611877      -819.347473       54.8318405      -122.945618      -15.1134024       10.5466614       6168797.00       313831.000       1212.16821    
         122   527.406921       1037.48193       94.8770981       28.0843983      -775.093994       84.1912537       66.9649734      -44.3151588      -60.2012291       1935333.25       98378.0000       850.602356    
 #=======================STRUCTURE TYPE->           2 =======================
 #GRAIN NUMBER| COORDINATES: X Y Z | STRESS XX YY ZZ ZY XZ XY | GRAIN VOLUME | NUMBER OF ATOMS | VON-MISES STRESS |
 #AVERAGE VON MISES STRESS FOR THIS STRUCTURE TYPE IS   741.143555    
           1   433.390472       1167.31836       90.8102036       464.050690      -750.144897      -100.567162      -110.765785       57.8522606       52.9682922       200941.484       11507.0000       1078.31934    
           2   374.507172       1127.43311       92.3577499       208.539841      -652.202698       73.7055130      -143.632874      -45.4918709      -221.698135       305719.188       17497.0000       926.579895    
           3   857.991394       681.956482       77.0377502       42.6986847      -803.332703       192.463486       29.5770302      -1.53984475      -41.8708496       214586.266       12289.0000       934.235168    
           4   1321.79761       674.075500       77.1360474      -394.761658      -728.960266       37.1584320       333.037750      -26.7976875       26.0349064       171485.344       9804.00000       882.904846    
           5   463.942200       295.897186       97.0335693      -51.7867355      -794.216919      -50.8105202      -37.9769707       40.1424408       81.9936600       247721.812       14149.0000       762.402893    
           6   129.520416       933.188171       96.3592606       294.751007      -795.432495       102.674644       63.7090416      -50.1000328       78.7037582       338956.062       19440.0000       1026.78345    
           7   681.753906       150.282181       88.7390747       119.095398      -477.966156      -23.4004803      -325.359863      -71.2472000       3.15404081       275046.969       15756.0000       790.281067    
           8   1484.95361       308.420471       92.2073364       377.235687      -372.328247       163.493561       27.3052750      -83.5922699       90.0320816       271980.562       15608.0000       703.445435    
           9   683.194092       334.901093       99.8880005       18.4201794      -582.812378      -18.6446037       241.952042      -82.5040970       11.0146475       251335.422       14366.0000       732.787170    
          10   1075.16028       795.263367       101.363091      -64.6359711      -759.291809       1.74410796      -102.637619      -22.8516636      -59.4679375       180549.312       10306.0000       759.502319    
          11   959.904907       262.524872       126.038879      -316.590485      -744.975952       99.3867264       235.776108       120.372749      -233.108994       27876.2520       1595.00000       952.895081    
          12   477.854523       415.305359       125.048386       132.097000      -435.993317       108.008011       16.8578434      -182.562256       25.9320469       149523.109       8551.00000       642.245361    
          13   509.093628       196.796844       118.320358       258.219604      -719.713867      -180.061249       277.255463       2.66272140      -68.6525574       127532.828       7283.00000       982.144104    
          14   272.034454       918.942017       89.8626785       11.5006418      -356.340759      -184.013489      -306.504913       21.0988731      -106.391335       141937.594       8125.00000       647.103943    
          15   1606.86035       346.485321       83.5589447       212.923889      -647.207581      -190.519302      -146.640244      -144.294861      -73.1871567       62012.7773       3545.00000       835.835266    
          16   359.808899       338.250397       84.3876343       313.971954       110.641830       50.7636223      -108.722481       133.438232       48.8715820       160490.906       9202.00000       391.341156    
          17   1201.19324       1046.28015       98.7116852       192.658325      -567.321167       35.4853477       5.27140331       99.3086395       7.82702494       257425.250       14727.0000       716.015137    
          18   534.775879       805.395874       97.0279083       489.802368      -764.921997      -22.1716442      0.353341490      -180.229202       246.740341       221230.734       12693.0000       1214.14783    
          19   1419.27625       680.269897       104.696327      -113.955391      -842.326721      -25.0208817       206.788681       93.3463821       20.0577049       329835.031       18861.0000       871.116394    
          20   1047.04785       1253.43823       97.7731628       217.104568      -798.015137      -42.3426018      -87.0166321       51.1190147      -7.19331360       218916.703       12524.0000       930.118958    
          21   427.444122       1003.09314       97.4508896       387.711731      -529.861511      -70.0637741       303.666718       122.767967      -49.9170456       240645.984       13810.0000       980.197937    
          22   1460.56885       1186.73120       97.5635834      -218.385086      -1006.35522       63.3905525      -102.766869      -21.4713535       107.179825       276998.531       15860.0000       994.914001    
          23   126.685753       629.460144       114.134422       31.8102226      -256.707336       131.999649       175.595810       72.4242935       26.5587769       128038.117       7348.00000       482.224335    
          24   1228.57837       496.062378       99.2189255      -6.78583956      -660.539978       69.5422821      -14.3958502      -56.3769302       24.3116207       904448.938       51824.0000       703.598083    
          25   1467.50769       646.963501       92.5250473      -214.972397      -600.639771      -67.4872360       51.3070068      -126.753563       7.08969784       580875.812       33245.0000       532.558716    
          26   1290.69604       583.885742       95.5786057       820.497253      -357.485138      -148.819366      -70.2869949       168.043716       43.1819839       40682.1953       2326.00000       1136.00623    
          27   84.5849838       112.651924       88.0346146       462.698700      -48.6364212       41.3228531      -231.576340       138.775238      -50.6220360       200281.141       11495.0000       670.748230    
          28   212.767090       364.265686       85.2920380      -60.1428146      -1155.95984       118.257774       158.673874      -12.8570652      -2.59964800       234992.016       13431.0000       1226.45203    
          29   1590.15234       926.379028       104.288506      -126.636292      -616.669922       115.356529      -319.639618      -38.6897316      -3.61504745       226776.672       12986.0000       853.414551    
          30   1359.14673       772.065613       98.9615402       319.886536      -412.749939       200.318878      -64.4625168       146.444595      -37.1597366       243112.750       13925.0000       737.834595    
          31   1118.41516       1088.52087       77.3598480       560.995667      -824.988831      -231.136200       225.304398       135.078918      -152.828018       83638.0391       4782.00000       1314.39636    
          32   1555.93567       1143.79065       99.4051514       29.7838650      -510.057770      -207.243423       137.487015      -162.068832      -58.9302902       90859.8594       5189.00000       604.631287    
          33   1375.99780       97.9146118       92.4893723      -38.4434090      -629.108582      -2.69863582       163.120346      -24.0506630      -115.052345       221153.609       12660.0000       701.817261    
          34   546.868530       149.365219       88.5755310      -379.589233      -896.257690      -180.656723      -172.579086      -123.150612       48.7402191       58770.5703       3347.00000       742.481140    
          35   879.279358       1142.80029       113.965797       285.322174      -192.867706      -32.6633797       42.0741920       59.7964363      -19.4564381       135198.672       7752.00000       441.470398    
          36   848.258972       194.595474       102.951538       390.027344      -341.538025       70.4465866      -141.416824       47.8123856       116.635406       192409.469       11040.0000       714.976379    
          37   596.710388       314.134430       99.8686295      -2.39201283      -658.840271      -75.8531494       61.9710083      -37.2583427       63.1548996       195843.219       11189.0000       644.785889    
          38   1267.84766       416.193481       97.4878082      -110.896568      -660.608093      -146.409775       49.1548424      -182.808426      -66.2104797       113676.414       6505.00000       636.065063    
          39   1129.00061       555.088989       94.5006714      -234.913666      -541.074951      -6.05267906      -10.8832035      -52.6367836      -56.7622490       129475.422       7414.00000       484.265961    
          40   938.376587       1230.73938       101.849869       187.119644      -930.920227       6.75473261       135.636444       242.833069      -49.4063416       152289.656       8708.00000       1149.04651    
          41   1550.00183       172.359207       111.698044       240.155029      -222.841461       161.284027       91.4009705       32.0319366       25.4351501       207257.234       11905.0000       462.764252    
          42   1419.52051       469.996429       73.9944305       1013.44220       7.92707586       283.609375       141.388992       33.9187737      -48.7650261       23939.9746       1377.00000       938.305237    
          43   236.730759       512.786560       111.881241       288.759033      -853.959473       5.57309580       394.480988       70.6467972      -165.969147       133618.906       7653.00000       1275.48181    
          44   794.574524       754.658569       89.2641907       353.340698      -529.981384       140.003647      -218.696091       16.9824791      -71.5141983       495079.719       28383.0000       892.758240    
          45   656.887817       455.345795       110.916290       542.835510      -382.649780       316.711273      0.165386885       17.6346283      -66.6277924       163733.938       9393.00000       844.174988    
          46   1468.96399       140.369568       124.569969       108.739937      -472.661774       86.4179230      -461.405670      -23.9423656       239.057617       60381.9062       3461.00000       1066.48914    
          47   762.875916       1106.05676       91.1633987       428.234650      -681.727051       25.4396095       312.291229      -19.6515388      -12.6737814       175668.344       10068.0000       1114.17664    
          48   867.814636       502.793732       95.7491302       458.893555      -683.889221       61.5315628      -128.094360       69.9390869       59.0264206       293866.938       16870.0000       1041.20203    
          49   1324.70215       554.596252       91.7696991      -125.319633      -392.749237      -26.0437603       67.7251740      -132.373337       120.812737       208322.203       11923.0000       466.946411    
          50   985.919189       483.650574       86.5758286       674.473022      -280.825287       83.4488373      -363.485291      -1.64000857       47.6264839       150120.484       8615.00000       1049.03650    
          51   476.865479       1037.17773       90.9956055       117.905365      -1036.46167      -9.20030177E-02  -255.894791       102.997238       61.9206543       275803.969       15775.0000       1204.17969    
          52   142.290192       249.605957       98.1617203       177.020264      -627.244507       38.7194519      -22.8046207       77.8575592       61.9487877       268159.656       15349.0000       765.504395    
          53   734.026184       917.659912       90.0311508       243.234116       51.1630440       160.532074      -44.3544464       19.4535923      -36.6767807       343032.594       19725.0000       197.279221    
          54   571.708618       465.421265       85.6668625       149.350388      -665.898010       33.6329155       75.0708313       107.241135      -121.841240       180088.156       10312.0000       824.394775    
          55   1588.98193       1245.02881       91.2050858       331.370209      -636.905579       3.01166606       80.0916443      -98.6188965      -147.269150       76065.8594       4364.00000       917.017639    
          56   714.776001       1223.12158       127.652702       342.372772      -25.7007160      -57.7881470      -22.7119980      -159.597153       320.387207       21207.7461       1212.00000       730.905884    
          57   505.788239       119.664276       110.027596       687.283203      -393.399261       29.1162529       17.1174488      -30.5537720       38.0981674       173275.938       9933.00000       947.535156    
          58   839.611389       924.476257       92.8487930       228.156204      -987.791321      -90.1326981      -25.8277740      -23.8340435       33.5143661       107699.906       6150.00000       1095.39429    
          59   1479.51550       470.107025       103.415009       344.466492      -398.011719       118.959625       140.435211       81.2645416      -36.0922813       235431.609       13516.0000       719.429749    
          60   1305.45850       954.018494       95.6678772       12.0524759      -626.929688       49.6791077       96.2963028      -114.942513      -110.095596       236217.016       13497.0000       733.194397    
          61   1218.04590       900.330688       68.5098190      -29.9775486      -686.112000       58.8741684       70.1841660       16.5792332      -165.068909       87396.0312       4994.00000       770.747070    
          62   1275.39514       1119.19287       119.772003       312.349823      -638.445679      -118.432137      -313.472717      -172.439728      -78.0020828       111871.820       6411.00000       1040.31458    
          63   596.086182       128.969849       90.5999069       112.639313      -720.828552       235.117096      -196.582001       117.829185      -121.587494       277326.125       15876.0000       1006.81976    
          64   394.318298       337.906616       112.096321       189.842270      -966.272766       180.870041       31.1948051       81.4815369       189.309204       159209.375       9109.00000       1206.92188    
          65   654.578186       1068.25049       93.4196930       754.478394      -513.170349       8.40441322      -304.365540       37.4735146      -37.3678055       189878.594       10900.0000       1226.42444    
          66   104.540840       571.183960       91.5834351      -400.770569      -823.485535     -0.686117113       62.4576035       160.897446       4.77079821       375231.438       21450.0000       772.859802    
          67   1391.46179       354.658386       112.467651       385.723663      -639.459717      -262.439758       23.3232651       146.663940      -62.4294968       170690.047       9776.00000       940.470947    
          68   85.2425613       429.871887       93.6351547       197.537262      -750.197327      -87.3875427       261.316589      -3.63406205       8.26132584       123783.180       7080.00000       956.270569    
          69   114.547226       1095.90320       97.8733521       145.550690      -858.532410      -23.7644997      -215.027313      -138.702850       16.7503967       347774.500       19909.0000       1031.55774    
          70   272.440216       242.422775       95.2451859       80.9749069      -913.244568      -32.1334381      -246.683533      -32.8602104      -60.4578247       192073.188       10977.0000       1041.90906    
          71   1410.71826       1023.31165       92.9067764       492.125641       157.491928       648.173523       34.8362007       102.931732      -112.680786       19291.6426       1103.00000       511.923737    
          72   979.404480       1144.77539       98.4765549       715.171387      -1315.91663      -51.2052307      -82.2748413      -2.77610040      -144.291962       69074.6328       3949.00000       1799.68445    
          73   168.333023       977.020874       85.7261353       97.7606506      -457.827728       26.3360233      -33.4543610       71.1380844      -93.9459991       119514.578       6851.00000       564.901978    
          74   932.041138       427.329498       78.4474716      -340.970367      -548.200623      -305.892853      -152.174469       53.5704041       37.7812157       11664.6660       665.000000       365.796082    
          75   1421.79407       841.448547       99.5547562       483.043427      -472.827881      -58.6132355      -133.360443      -156.327286       149.586487       156692.062       8974.00000       939.747742    
          76   764.170471       187.549469       127.870880       418.179443       12.1286564      -15.3162775       71.6900253       133.017914       26.9701862       46148.3984       2646.00000       497.449829    
          77   973.414429       618.604370       85.7546997       350.861908      -390.661987       170.097534       74.8691864      -93.9575348      -29.0108700       236795.250       13588.0000       703.077148    
          78   1166.94995       357.716675       102.841919       712.211182      -882.323853       253.500977      -160.164993      -282.392944       17.2434940       420266.125       24157.0000       1529.25317    
          79   197.953995       796.350342       111.418053       724.256287      -532.176697       30.4773388       44.0576401       185.696243      -94.5760651       158191.203       9071.00000       1150.81396    
          80   543.919617       1153.83594       116.384674       604.984009      -525.839966      -39.8487740      -137.551865      -88.4569016       113.479187       185714.719       10659.0000       1041.27222    
          81   780.454895       575.041809       89.6036148       405.426208      -404.565826       149.577530      -175.755768      -190.576706       65.1773529       297793.688       17102.0000       853.629456    
          82   1094.98621       691.843750       137.180435       46.7866287      -322.643890       110.706924      -242.046829       10.5887527       2.12047124       55506.1680       3183.00000       583.342712    
          83   1603.81091       1060.73267       85.6112823       175.160172      -49.7192078      -147.710114       177.243362       83.8765411      -42.6681824       135177.672       7754.00000       450.579895    
          84   743.146118       214.882919       139.693329      -748.396729      -1527.03821      -189.385147      -113.945251      -52.8266678      -167.473434       12102.4648       689.000000       1218.81531    
          85   1063.41223       904.943665       85.4810562       572.701843      -389.801117       88.7230988      -24.6898823       83.6595840     -0.925266325       241646.641       13868.0000       847.139038    
          86   1194.37561       1151.84644       90.8576736       532.096313      -437.005432       54.3171539      -27.4350510      -72.6593018       74.0741653       236624.188       13568.0000       859.634583    
          87   327.104706       706.354492       103.386955       259.212555      -742.688965       86.8221893      -189.855438      -187.040009       21.6144218       179160.016       10266.0000       1036.96460    
          88   752.160278       432.824310       87.3897095       89.5195160      -324.809296      -89.4356613      -70.5848541      -19.7479916      -28.6496048       269665.906       15444.0000       384.871460    
          89   585.723022       611.654480       95.0410767       452.003723      -752.187744       22.0933495      -140.245056       50.8605843       69.5626984       457174.875       26200.0000       1094.75525    
          90   875.505554       341.909973       85.3386383      -157.160477      -880.505066      -159.885483       126.301888       46.3943596      -171.610641       159415.469       9087.00000       814.817871    
          91   314.706451       433.870117       108.427856      -330.843018      -1028.66443      -36.5838814       36.8850517      -22.8146038      -80.0652390       292519.688       16682.0000       896.525452    
          92   328.373474       537.141968       115.089783       945.512268      -574.727173       159.474670       330.237671      -71.5476303       127.832848       271183.562       15583.0000       1457.93335    
          93   1173.05054       800.254333       75.7491837       265.058289      -536.725708       161.768768      -38.4872169       12.7598124       82.5751343       302843.094       17353.0000       772.074219    
          94   1569.09619       808.742737       99.2182159       572.741455      -894.029907       197.420578      -23.9613075       143.980194      -120.964272       290191.375       16641.0000       1359.99426    
          95   941.794556       926.957703       98.5779037       9.62457561      -566.065002      -13.8837833       61.7240105      -14.9915800       96.2233810       411702.094       23581.0000       598.596924    
          96   1260.23218       800.338867       92.0043716       589.901672      -841.170898       123.640877      -117.580795      -136.026123      -53.6511841       197612.062       11317.0000       1305.27209    
          97   970.401611       776.332520       91.6385956       252.091324      -435.100464       167.111328      -89.6423874      -45.2769432      -28.0219879       268602.312       15400.0000       673.549988    
          98   629.473816       993.071594       88.3778229      -61.4384918      -614.994812      -518.356750      -70.2835464       33.1437798       382.587158       24178.1738       1378.00000       848.234985    
          99   1099.12219       430.376129       121.720543       667.607544      -116.333015       296.732086      -496.632812      -155.154617       32.9072685       59944.6797       3447.00000       1129.94116    
         100   357.590698       154.819244       87.9900665       447.326019      -874.842224       171.899643      -126.885094      -44.7110748       48.1995125       202174.828       11587.0000       1233.32666    
         101   475.107391       970.120667       109.793007      -99.2364807      -599.230713      -152.645477      -92.1546021      -78.1563873       31.7430801       170937.156       9769.00000       522.463501    
         102   207.656250       118.075798       96.2056046      -194.483261      -649.030151      -382.361053      -51.3357124       217.923798      -114.204987       111481.922       6351.00000       588.233276    
         103   440.644165       512.085938       91.3129730      -3.85324979      -936.935669      -58.0054665      -38.1731682       87.4028778      -174.161758       370238.031       21178.0000       970.223206    
         104   985.318604       1020.95135       87.7623520       417.477173      -416.228668       43.5698814       22.0151863      -81.9947891      -175.441818       300587.094       17258.0000       798.189392    
         105   1007.39288       153.735352       86.6947556      -95.7394485      -649.558655      -118.293602       138.925323       48.7680931      -58.2195740       421983.406       24144.0000       608.225098    
         106   1500.10120       914.145813       110.157578       76.1019821      -247.728394       7.20640659       6.99385214      -122.686760       68.1119156       87673.9766       5024.00000       382.782959    
         107   841.658203       811.120422       70.1926422       471.107635       264.169128       144.552979      -34.0692368      -159.885223       112.512787       32918.4531       1892.00000       447.251740    
         108   826.693787       106.408691       83.8734589       246.516403      -608.208496      -97.4911346       53.3202553      -21.9420662      -264.078796       21554.8477       1230.00000       879.801270    
         109   1094.01868       741.255554       77.4187164       254.561874      -232.916779       72.8228073      -169.478561      -61.1532364       143.135605       140552.297       8055.00000       583.885376    
         110   1254.66870       309.598633       91.7487717       95.0691147      -654.870483      -30.9396877      -219.482300       184.935760       31.5408573       266523.156       15275.0000       856.676270    
         111   240.600311       1200.14844       93.7148514       39.6157494      -734.180481      -137.281006      -46.8217087      -106.996758       52.4014244       360237.656       20591.0000       736.430847    
         112   1520.47827       1029.66064       94.2601547       745.142578      -812.929932       74.0646744       273.546844      -16.2360172      -27.7963448       107291.398       6021.00000       1435.24902    
         113   1186.51318       95.0342026       105.426308      -144.577682      -763.033203       104.054405       262.446381       74.3265152      -169.338318       222509.797       11205.0000       952.526611    
         114   1366.20471       238.748154       121.311180       17.0033474      -519.693481      -77.1052628      -46.4936638     -0.750135779       40.7512703       152765.609       7356.00000       507.799988    
         115   232.897400       597.450928       94.9420013      -195.149124      -1002.05072      -143.368240      -152.085220       44.2016602      -42.9768867       118426.391       5189.00000       881.104797    
         116   848.225647       1149.46753       94.7163010       122.789436      -801.829834      -12.8646231      -26.9839725       36.7598763       56.9450073       260512.016       13968.0000       873.991394    
         117   303.308014       917.661499       89.8491058       173.007492      -624.679138      -86.2440338      -89.0633774       9.11486816      -7.53835154       603851.125       28946.0000       721.755127    
         118   819.064514       1030.95642       71.1525421       164.884781      -712.949219      -123.927361       3.27723408       6.02563477       166.392563       78648.2891       3685.00000       826.847351    
         119   949.828125       457.951996       93.7489700      -289.172546      -869.163330      -147.502563       39.3938255      -49.4268379       59.1112709       320312.344       16929.0000       679.039062    
         120   643.454773       692.487183       74.6021652       218.664032      -113.676910       45.2039986      -39.7603493       55.8372421      -76.3004074       93899.6562       4264.00000       338.308014    
         121   488.967102       866.284119       98.4303360       149.611359      -494.227905      -77.6407166      -143.323639       85.4645081       15.6714706       98158.6406       4827.00000       635.714539    
         122   525.813049       1053.94055       91.6196442       143.631226      -625.987854      -12.9754553       65.7909775      -3.78320599      -37.7779999       209164.484       10392.0000       716.673889    
 #=======================STRUCTURE TYPE->           3 =======================
 #GRAIN NUMBER| COORDINATES: X Y Z | STRESS XX YY ZZ ZY XZ XY | GRAIN VOLUME | NUMBER OF ATOMS | VON-MISES STRESS |
 #AVERAGE VON MISES STRESS FOR THIS STRUCTURE TYPE IS              NaN
           1              NaN              NaN              NaN              NaN              NaN              NaN              NaN              NaN              NaN   0.00000000       0.00000000                  NaN
           2              NaN              NaN              NaN              NaN              NaN              NaN              NaN              NaN              NaN   0.00000000       0.00000000                  NaN
           3              NaN              NaN              NaN              NaN              NaN              NaN              NaN              NaN              NaN   0.00000000       0.00000000                  NaN
           4              NaN              NaN              NaN              NaN              NaN              NaN              NaN              NaN              NaN   0.00000000       0.00000000                  NaN
           5              NaN              NaN              NaN              NaN              NaN              NaN              NaN              NaN              NaN   0.00000000       0.00000000                  NaN
           6              NaN              NaN              NaN              NaN              NaN              NaN              NaN              NaN              NaN   0.00000000       0.00000000                  NaN
           7              NaN              NaN              NaN              NaN              NaN              NaN              NaN              NaN              NaN   0.00000000       0.00000000                  NaN
           8              NaN              NaN              NaN              NaN              NaN              NaN              NaN              NaN              NaN   0.00000000       0.00000000                  NaN
           9              NaN              NaN              NaN              NaN              NaN              NaN              NaN              NaN              NaN   0.00000000       0.00000000                  NaN
          10              NaN              NaN              NaN              NaN              NaN              NaN              NaN              NaN              NaN   0.00000000       0.00000000                  NaN
          11              NaN              NaN              NaN              NaN              NaN              NaN              NaN              NaN              NaN   0.00000000       0.00000000                  NaN
          12              NaN              NaN              NaN              NaN              NaN              NaN              NaN              NaN              NaN   0.00000000       0.00000000                  NaN
          13              NaN              NaN              NaN              NaN              NaN              NaN              NaN              NaN              NaN   0.00000000       0.00000000                  NaN
          14              NaN              NaN              NaN              NaN              NaN              NaN              NaN              NaN              NaN   0.00000000       0.00000000                  NaN
          15              NaN              NaN              NaN              NaN              NaN              NaN              NaN              NaN              NaN   0.00000000       0.00000000                  NaN
          16              NaN              NaN              NaN              NaN              NaN              NaN              NaN              NaN              NaN   0.00000000       0.00000000                  NaN
          17              NaN              NaN              NaN              NaN              NaN              NaN              NaN              NaN              NaN   0.00000000       0.00000000                  NaN
          18              NaN              NaN              NaN              NaN              NaN              NaN              NaN              NaN              NaN   0.00000000       0.00000000                  NaN
          19              NaN              NaN              NaN              NaN              NaN              NaN              NaN              NaN              NaN   0.00000000       0.00000000                  NaN
          20              NaN              NaN              NaN              NaN              NaN              NaN              NaN              NaN              NaN   0.00000000       0.00000000                  NaN
          21              NaN              NaN              NaN              NaN              NaN              NaN              NaN              NaN              NaN   0.00000000       0.00000000                  NaN
          22              NaN              NaN              NaN              NaN              NaN              NaN              NaN              NaN              NaN   0.00000000       0.00000000                  NaN
          23              NaN              NaN              NaN              NaN              NaN              NaN              NaN              NaN              NaN   0.00000000       0.00000000                  NaN
          24              NaN              NaN              NaN              NaN              NaN              NaN              NaN              NaN              NaN   0.00000000       0.00000000                  NaN
          25              NaN              NaN              NaN              NaN              NaN              NaN              NaN              NaN              NaN   0.00000000       0.00000000                  NaN
          26              NaN              NaN              NaN              NaN              NaN              NaN              NaN              NaN              NaN   0.00000000       0.00000000                  NaN
          27              NaN              NaN              NaN              NaN              NaN              NaN              NaN              NaN              NaN   0.00000000       0.00000000                  NaN
          28              NaN              NaN              NaN              NaN              NaN              NaN              NaN              NaN              NaN   0.00000000       0.00000000                  NaN
          29              NaN              NaN              NaN              NaN              NaN              NaN              NaN              NaN              NaN   0.00000000       0.00000000                  NaN
          30              NaN              NaN              NaN              NaN              NaN              NaN              NaN              NaN              NaN   0.00000000       0.00000000                  NaN
          31              NaN              NaN              NaN              NaN              NaN              NaN              NaN              NaN              NaN   0.00000000       0.00000000                  NaN
          32              NaN              NaN              NaN              NaN              NaN              NaN              NaN              NaN              NaN   0.00000000       0.00000000                  NaN
          33              NaN              NaN              NaN              NaN              NaN              NaN              NaN              NaN              NaN   0.00000000       0.00000000                  NaN
          34              NaN              NaN              NaN              NaN              NaN              NaN              NaN              NaN              NaN   0.00000000       0.00000000                  NaN
          35              NaN              NaN              NaN              NaN              NaN              NaN              NaN              NaN              NaN   0.00000000       0.00000000                  NaN
          36              NaN              NaN              NaN              NaN              NaN              NaN              NaN              NaN              NaN   0.00000000       0.00000000                  NaN
          37              NaN              NaN              NaN              NaN              NaN              NaN              NaN              NaN              NaN   0.00000000       0.00000000                  NaN
          38              NaN              NaN              NaN              NaN              NaN              NaN              NaN              NaN              NaN   0.00000000       0.00000000                  NaN
          39              NaN              NaN              NaN              NaN              NaN              NaN              NaN              NaN              NaN   0.00000000       0.00000000                  NaN
          40              NaN              NaN              NaN              NaN              NaN              NaN              NaN              NaN              NaN   0.00000000       0.00000000                  NaN
          41              NaN              NaN              NaN              NaN              NaN              NaN              NaN              NaN              NaN   0.00000000       0.00000000                  NaN
          42              NaN              NaN              NaN              NaN              NaN              NaN              NaN              NaN              NaN   0.00000000       0.00000000                  NaN
          43              NaN              NaN              NaN              NaN              NaN              NaN              NaN              NaN              NaN   0.00000000       0.00000000                  NaN
          44              NaN              NaN              NaN              NaN              NaN              NaN              NaN              NaN              NaN   0.00000000       0.00000000                  NaN
          45              NaN              NaN              NaN              NaN              NaN              NaN              NaN              NaN              NaN   0.00000000       0.00000000                  NaN
          46              NaN              NaN              NaN              NaN              NaN              NaN              NaN              NaN              NaN   0.00000000       0.00000000                  NaN
          47              NaN              NaN              NaN              NaN              NaN              NaN              NaN              NaN              NaN   0.00000000       0.00000000                  NaN
          48              NaN              NaN              NaN              NaN              NaN              NaN              NaN              NaN              NaN   0.00000000       0.00000000                  NaN
          49              NaN              NaN              NaN              NaN              NaN              NaN              NaN              NaN              NaN   0.00000000       0.00000000                  NaN
          50              NaN              NaN              NaN              NaN              NaN              NaN              NaN              NaN              NaN   0.00000000       0.00000000                  NaN
          51              NaN              NaN              NaN              NaN              NaN              NaN              NaN              NaN              NaN   0.00000000       0.00000000                  NaN
          52              NaN              NaN              NaN              NaN              NaN              NaN              NaN              NaN              NaN   0.00000000       0.00000000                  NaN
          53              NaN              NaN              NaN              NaN              NaN              NaN              NaN              NaN              NaN   0.00000000       0.00000000                  NaN
          54              NaN              NaN              NaN              NaN              NaN              NaN              NaN              NaN              NaN   0.00000000       0.00000000                  NaN
          55              NaN              NaN              NaN              NaN              NaN              NaN              NaN              NaN              NaN   0.00000000       0.00000000                  NaN
          56              NaN              NaN              NaN              NaN              NaN              NaN              NaN              NaN              NaN   0.00000000       0.00000000                  NaN
          57              NaN              NaN              NaN              NaN              NaN              NaN              NaN              NaN              NaN   0.00000000       0.00000000                  NaN
          58              NaN              NaN              NaN              NaN              NaN              NaN              NaN              NaN              NaN   0.00000000       0.00000000                  NaN
          59              NaN              NaN              NaN              NaN              NaN              NaN              NaN              NaN              NaN   0.00000000       0.00000000                  NaN
          60              NaN              NaN              NaN              NaN              NaN              NaN              NaN              NaN              NaN   0.00000000       0.00000000                  NaN
          61              NaN              NaN              NaN              NaN              NaN              NaN              NaN              NaN              NaN   0.00000000       0.00000000                  NaN
          62              NaN              NaN              NaN              NaN              NaN              NaN              NaN              NaN              NaN   0.00000000       0.00000000                  NaN
          63              NaN              NaN              NaN              NaN              NaN              NaN              NaN              NaN              NaN   0.00000000       0.00000000                  NaN
          64              NaN              NaN              NaN              NaN              NaN              NaN              NaN              NaN              NaN   0.00000000       0.00000000                  NaN
          65              NaN              NaN              NaN              NaN              NaN              NaN              NaN              NaN              NaN   0.00000000       0.00000000                  NaN
          66              NaN              NaN              NaN              NaN              NaN              NaN              NaN              NaN              NaN   0.00000000       0.00000000                  NaN
          67              NaN              NaN              NaN              NaN              NaN              NaN              NaN              NaN              NaN   0.00000000       0.00000000                  NaN
          68              NaN              NaN              NaN              NaN              NaN              NaN              NaN              NaN              NaN   0.00000000       0.00000000                  NaN
          69              NaN              NaN              NaN              NaN              NaN              NaN              NaN              NaN              NaN   0.00000000       0.00000000                  NaN
          70              NaN              NaN              NaN              NaN              NaN              NaN              NaN              NaN              NaN   0.00000000       0.00000000                  NaN
          71              NaN              NaN              NaN              NaN              NaN              NaN              NaN              NaN              NaN   0.00000000       0.00000000                  NaN
          72              NaN              NaN              NaN              NaN              NaN              NaN              NaN              NaN              NaN   0.00000000       0.00000000                  NaN
          73              NaN              NaN              NaN              NaN              NaN              NaN              NaN              NaN              NaN   0.00000000       0.00000000                  NaN
          74              NaN              NaN              NaN              NaN              NaN              NaN              NaN              NaN              NaN   0.00000000       0.00000000                  NaN
          75              NaN              NaN              NaN              NaN              NaN              NaN              NaN              NaN              NaN   0.00000000       0.00000000                  NaN
          76              NaN              NaN              NaN              NaN              NaN              NaN              NaN              NaN              NaN   0.00000000       0.00000000                  NaN
          77              NaN              NaN              NaN              NaN              NaN              NaN              NaN              NaN              NaN   0.00000000       0.00000000                  NaN
          78              NaN              NaN              NaN              NaN              NaN              NaN              NaN              NaN              NaN   0.00000000       0.00000000                  NaN
          79              NaN              NaN              NaN              NaN              NaN              NaN              NaN              NaN              NaN   0.00000000       0.00000000                  NaN
          80              NaN              NaN              NaN              NaN              NaN              NaN              NaN              NaN              NaN   0.00000000       0.00000000                  NaN
          81              NaN              NaN              NaN              NaN              NaN              NaN              NaN              NaN              NaN   0.00000000       0.00000000                  NaN
          82              NaN              NaN              NaN              NaN              NaN              NaN              NaN              NaN              NaN   0.00000000       0.00000000                  NaN
          83              NaN              NaN              NaN              NaN              NaN              NaN              NaN              NaN              NaN   0.00000000       0.00000000                  NaN
          84              NaN              NaN              NaN              NaN              NaN              NaN              NaN              NaN              NaN   0.00000000       0.00000000                  NaN
          85              NaN              NaN              NaN              NaN              NaN              NaN              NaN              NaN              NaN   0.00000000       0.00000000                  NaN
          86              NaN              NaN              NaN              NaN              NaN              NaN              NaN              NaN              NaN   0.00000000       0.00000000                  NaN
          87              NaN              NaN              NaN              NaN              NaN              NaN              NaN              NaN              NaN   0.00000000       0.00000000                  NaN
          88              NaN              NaN              NaN              NaN              NaN              NaN              NaN              NaN              NaN   0.00000000       0.00000000                  NaN
          89              NaN              NaN              NaN              NaN              NaN              NaN              NaN              NaN              NaN   0.00000000       0.00000000                  NaN
          90              NaN              NaN              NaN              NaN              NaN              NaN              NaN              NaN              NaN   0.00000000       0.00000000                  NaN
          91              NaN              NaN              NaN              NaN              NaN              NaN              NaN              NaN              NaN   0.00000000       0.00000000                  NaN
          92              NaN              NaN              NaN              NaN              NaN              NaN              NaN              NaN              NaN   0.00000000       0.00000000                  NaN
          93              NaN              NaN              NaN              NaN              NaN              NaN              NaN              NaN              NaN   0.00000000       0.00000000                  NaN
          94              NaN              NaN              NaN              NaN              NaN              NaN              NaN              NaN              NaN   0.00000000       0.00000000                  NaN
          95              NaN              NaN              NaN              NaN              NaN              NaN              NaN              NaN              NaN   0.00000000       0.00000000                  NaN
          96              NaN              NaN              NaN              NaN              NaN              NaN              NaN              NaN              NaN   0.00000000       0.00000000                  NaN
          97              NaN              NaN              NaN              NaN              NaN              NaN              NaN              NaN              NaN   0.00000000       0.00000000                  NaN
          98              NaN              NaN              NaN              NaN              NaN              NaN              NaN              NaN              NaN   0.00000000       0.00000000                  NaN
          99              NaN              NaN              NaN              NaN              NaN              NaN              NaN              NaN              NaN   0.00000000       0.00000000                  NaN
         100              NaN              NaN              NaN              NaN              NaN              NaN              NaN              NaN              NaN   0.00000000       0.00000000                  NaN
         101              NaN              NaN              NaN              NaN              NaN              NaN              NaN              NaN              NaN   0.00000000       0.00000000                  NaN
         102              NaN              NaN              NaN              NaN              NaN              NaN              NaN              NaN              NaN   0.00000000       0.00000000                  NaN
         103              NaN              NaN              NaN              NaN              NaN              NaN              NaN              NaN              NaN   0.00000000       0.00000000                  NaN
         104              NaN              NaN              NaN              NaN              NaN              NaN              NaN              NaN              NaN   0.00000000       0.00000000                  NaN
         105              NaN              NaN              NaN              NaN              NaN              NaN              NaN              NaN              NaN   0.00000000       0.00000000                  NaN
         106              NaN              NaN              NaN              NaN              NaN              NaN              NaN              NaN              NaN   0.00000000       0.00000000                  NaN
         107              NaN              NaN              NaN              NaN              NaN              NaN              NaN              NaN              NaN   0.00000000       0.00000000                  NaN
         108              NaN              NaN              NaN              NaN              NaN              NaN              NaN              NaN              NaN   0.00000000       0.00000000                  NaN
         109              NaN              NaN              NaN              NaN              NaN              NaN              NaN              NaN              NaN   0.00000000       0.00000000                  NaN
         110              NaN              NaN              NaN              NaN              NaN              NaN              NaN              NaN              NaN   0.00000000       0.00000000                  NaN
         111              NaN              NaN              NaN              NaN              NaN              NaN              NaN              NaN              NaN   0.00000000       0.00000000                  NaN
         112              NaN              NaN              NaN              NaN              NaN              NaN              NaN              NaN              NaN   0.00000000       0.00000000                  NaN
         113              NaN              NaN              NaN              NaN              NaN              NaN              NaN              NaN              NaN   0.00000000       0.00000000                  NaN
         114              NaN              NaN              NaN              NaN              NaN              NaN              NaN              NaN              NaN   0.00000000       0.00000000                  NaN
         115              NaN              NaN              NaN              NaN              NaN              NaN              NaN              NaN              NaN   0.00000000       0.00000000                  NaN
         116              NaN              NaN              NaN              NaN              NaN              NaN              NaN              NaN              NaN   0.00000000       0.00000000                  NaN
         117              NaN              NaN              NaN              NaN              NaN              NaN              NaN              NaN              NaN   0.00000000       0.00000000                  NaN
         118              NaN              NaN              NaN              NaN              NaN              NaN              NaN              NaN              NaN   0.00000000       0.00000000                  NaN
         119              NaN              NaN              NaN              NaN              NaN              NaN              NaN              NaN              NaN   0.00000000       0.00000000                  NaN
         120              NaN              NaN              NaN              NaN              NaN              NaN              NaN              NaN              NaN   0.00000000       0.00000000                  NaN
         121              NaN              NaN              NaN              NaN              NaN              NaN              NaN              NaN              NaN   0.00000000       0.00000000                  NaN
         122              NaN              NaN              NaN              NaN              NaN              NaN              NaN              NaN              NaN   0.00000000       0.00000000                  NaN
 #=======================STRUCTURE TYPE->           4 =======================
 #GRAIN NUMBER| COORDINATES: X Y Z | STRESS XX YY ZZ ZY XZ XY | GRAIN VOLUME | NUMBER OF ATOMS | VON-MISES STRESS |
 #AVERAGE VON MISES STRESS FOR THIS STRUCTURE TYPE IS   9073.04785    
           1              NaN              NaN              NaN              NaN              NaN              NaN              NaN              NaN              NaN   0.00000000       0.00000000                  NaN
           2              NaN              NaN              NaN              NaN              NaN              NaN              NaN              NaN              NaN   0.00000000       0.00000000                  NaN
           3              NaN              NaN              NaN              NaN              NaN              NaN              NaN              NaN              NaN   0.00000000       0.00000000                  NaN
           4              NaN              NaN              NaN              NaN              NaN              NaN              NaN              NaN              NaN   0.00000000       0.00000000                  NaN
           5              NaN              NaN              NaN              NaN              NaN              NaN              NaN              NaN              NaN   0.00000000       0.00000000                  NaN
           6              NaN              NaN              NaN              NaN              NaN              NaN              NaN              NaN              NaN   0.00000000       0.00000000                  NaN
           7              NaN              NaN              NaN              NaN              NaN              NaN              NaN              NaN              NaN   0.00000000       0.00000000                  NaN
           8              NaN              NaN              NaN              NaN              NaN              NaN              NaN              NaN              NaN   0.00000000       0.00000000                  NaN
           9              NaN              NaN              NaN              NaN              NaN              NaN              NaN              NaN              NaN   0.00000000       0.00000000                  NaN
          10              NaN              NaN              NaN              NaN              NaN              NaN              NaN              NaN              NaN   0.00000000       0.00000000                  NaN
          11              NaN              NaN              NaN              NaN              NaN              NaN              NaN              NaN              NaN   0.00000000       0.00000000                  NaN
          12              NaN              NaN              NaN              NaN              NaN              NaN              NaN              NaN              NaN   0.00000000       0.00000000                  NaN
          13              NaN              NaN              NaN              NaN              NaN              NaN              NaN              NaN              NaN   0.00000000       0.00000000                  NaN
          14              NaN              NaN              NaN              NaN              NaN              NaN              NaN              NaN              NaN   0.00000000       0.00000000                  NaN
          15              NaN              NaN              NaN              NaN              NaN              NaN              NaN              NaN              NaN   0.00000000       0.00000000                  NaN
          16              NaN              NaN              NaN              NaN              NaN              NaN              NaN              NaN              NaN   0.00000000       0.00000000                  NaN
          17              NaN              NaN              NaN              NaN              NaN              NaN              NaN              NaN              NaN   0.00000000       0.00000000                  NaN
          18              NaN              NaN              NaN              NaN              NaN              NaN              NaN              NaN              NaN   0.00000000       0.00000000                  NaN
          19              NaN              NaN              NaN              NaN              NaN              NaN              NaN              NaN              NaN   0.00000000       0.00000000                  NaN
          20              NaN              NaN              NaN              NaN              NaN              NaN              NaN              NaN              NaN   0.00000000       0.00000000                  NaN
          21              NaN              NaN              NaN              NaN              NaN              NaN              NaN              NaN              NaN   0.00000000       0.00000000                  NaN
          22              NaN              NaN              NaN              NaN              NaN              NaN              NaN              NaN              NaN   0.00000000       0.00000000                  NaN
          23              NaN              NaN              NaN              NaN              NaN              NaN              NaN              NaN              NaN   0.00000000       0.00000000                  NaN
          24              NaN              NaN              NaN              NaN              NaN              NaN              NaN              NaN              NaN   0.00000000       0.00000000                  NaN
          25              NaN              NaN              NaN              NaN              NaN              NaN              NaN              NaN              NaN   0.00000000       0.00000000                  NaN
          26              NaN              NaN              NaN              NaN              NaN              NaN              NaN              NaN              NaN   0.00000000       0.00000000                  NaN
          27              NaN              NaN              NaN              NaN              NaN              NaN              NaN              NaN              NaN   0.00000000       0.00000000                  NaN
          28              NaN              NaN              NaN              NaN              NaN              NaN              NaN              NaN              NaN   0.00000000       0.00000000                  NaN
          29              NaN              NaN              NaN              NaN              NaN              NaN              NaN              NaN              NaN   0.00000000       0.00000000                  NaN
          30              NaN              NaN              NaN              NaN              NaN              NaN              NaN              NaN              NaN   0.00000000       0.00000000                  NaN
          31              NaN              NaN              NaN              NaN              NaN              NaN              NaN              NaN              NaN   0.00000000       0.00000000                  NaN
          32              NaN              NaN              NaN              NaN              NaN              NaN              NaN              NaN              NaN   0.00000000       0.00000000                  NaN
          33              NaN              NaN              NaN              NaN              NaN              NaN              NaN              NaN              NaN   0.00000000       0.00000000                  NaN
          34              NaN              NaN              NaN              NaN              NaN              NaN              NaN              NaN              NaN   0.00000000       0.00000000                  NaN
          35              NaN              NaN              NaN              NaN              NaN              NaN              NaN              NaN              NaN   0.00000000       0.00000000                  NaN
          36              NaN              NaN              NaN              NaN              NaN              NaN              NaN              NaN              NaN   0.00000000       0.00000000                  NaN
          37              NaN              NaN              NaN              NaN              NaN              NaN              NaN              NaN              NaN   0.00000000       0.00000000                  NaN
          38              NaN              NaN              NaN              NaN              NaN              NaN              NaN              NaN              NaN   0.00000000       0.00000000                  NaN
          39              NaN              NaN              NaN              NaN              NaN              NaN              NaN              NaN              NaN   0.00000000       0.00000000                  NaN
          40              NaN              NaN              NaN              NaN              NaN              NaN              NaN              NaN              NaN   0.00000000       0.00000000                  NaN
          41              NaN              NaN              NaN              NaN              NaN              NaN              NaN              NaN              NaN   0.00000000       0.00000000                  NaN
          42              NaN              NaN              NaN              NaN              NaN              NaN              NaN              NaN              NaN   0.00000000       0.00000000                  NaN
          43              NaN              NaN              NaN              NaN              NaN              NaN              NaN              NaN              NaN   0.00000000       0.00000000                  NaN
          44              NaN              NaN              NaN              NaN              NaN              NaN              NaN              NaN              NaN   0.00000000       0.00000000                  NaN
          45   711.230225       8.36964512       107.041084       16445.3320       17591.4473       11774.3730       1018.82190      -3977.24097       1043.38611       15.5372190       1.00000000       9073.04785    
          46              NaN              NaN              NaN              NaN              NaN              NaN              NaN              NaN              NaN   0.00000000       0.00000000                  NaN
          47              NaN              NaN              NaN              NaN              NaN              NaN              NaN              NaN              NaN   0.00000000       0.00000000                  NaN
          48              NaN              NaN              NaN              NaN              NaN              NaN              NaN              NaN              NaN   0.00000000       0.00000000                  NaN
          49              NaN              NaN              NaN              NaN              NaN              NaN              NaN              NaN              NaN   0.00000000       0.00000000                  NaN
          50              NaN              NaN              NaN              NaN              NaN              NaN              NaN              NaN              NaN   0.00000000       0.00000000                  NaN
          51              NaN              NaN              NaN              NaN              NaN              NaN              NaN              NaN              NaN   0.00000000       0.00000000                  NaN
          52              NaN              NaN              NaN              NaN              NaN              NaN              NaN              NaN              NaN   0.00000000       0.00000000                  NaN
          53              NaN              NaN              NaN              NaN              NaN              NaN              NaN              NaN              NaN   0.00000000       0.00000000                  NaN
          54              NaN              NaN              NaN              NaN              NaN              NaN              NaN              NaN              NaN   0.00000000       0.00000000                  NaN
          55              NaN              NaN              NaN              NaN              NaN              NaN              NaN              NaN              NaN   0.00000000       0.00000000                  NaN
          56              NaN              NaN              NaN              NaN              NaN              NaN              NaN              NaN              NaN   0.00000000       0.00000000                  NaN
          57              NaN              NaN              NaN              NaN              NaN              NaN              NaN              NaN              NaN   0.00000000       0.00000000                  NaN
          58              NaN              NaN              NaN              NaN              NaN              NaN              NaN              NaN              NaN   0.00000000       0.00000000                  NaN
          59              NaN              NaN              NaN              NaN              NaN              NaN              NaN              NaN              NaN   0.00000000       0.00000000                  NaN
          60              NaN              NaN              NaN              NaN              NaN              NaN              NaN              NaN              NaN   0.00000000       0.00000000                  NaN
          61              NaN              NaN              NaN              NaN              NaN              NaN              NaN              NaN              NaN   0.00000000       0.00000000                  NaN
          62              NaN              NaN              NaN              NaN              NaN              NaN              NaN              NaN              NaN   0.00000000       0.00000000                  NaN
          63              NaN              NaN              NaN              NaN              NaN              NaN              NaN              NaN              NaN   0.00000000       0.00000000                  NaN
          64              NaN              NaN              NaN              NaN              NaN              NaN              NaN              NaN              NaN   0.00000000       0.00000000                  NaN
          65              NaN              NaN              NaN              NaN              NaN              NaN              NaN              NaN              NaN   0.00000000       0.00000000                  NaN
          66              NaN              NaN              NaN              NaN              NaN              NaN              NaN              NaN              NaN   0.00000000       0.00000000                  NaN
          67              NaN              NaN              NaN              NaN              NaN              NaN              NaN              NaN              NaN   0.00000000       0.00000000                  NaN
          68              NaN              NaN              NaN              NaN              NaN              NaN              NaN              NaN              NaN   0.00000000       0.00000000                  NaN
          69              NaN              NaN              NaN              NaN              NaN              NaN              NaN              NaN              NaN   0.00000000       0.00000000                  NaN
          70              NaN              NaN              NaN              NaN              NaN              NaN              NaN              NaN              NaN   0.00000000       0.00000000                  NaN
          71              NaN              NaN              NaN              NaN              NaN              NaN              NaN              NaN              NaN   0.00000000       0.00000000                  NaN
          72              NaN              NaN              NaN              NaN              NaN              NaN              NaN              NaN              NaN   0.00000000       0.00000000                  NaN
          73              NaN              NaN              NaN              NaN              NaN              NaN              NaN              NaN              NaN   0.00000000       0.00000000                  NaN
          74              NaN              NaN              NaN              NaN              NaN              NaN              NaN              NaN              NaN   0.00000000       0.00000000                  NaN
          75              NaN              NaN              NaN              NaN              NaN              NaN              NaN              NaN              NaN   0.00000000       0.00000000                  NaN
          76              NaN              NaN              NaN              NaN              NaN              NaN              NaN              NaN              NaN   0.00000000       0.00000000                  NaN
          77              NaN              NaN              NaN              NaN              NaN              NaN              NaN              NaN              NaN   0.00000000       0.00000000                  NaN
          78              NaN              NaN              NaN              NaN              NaN              NaN              NaN              NaN              NaN   0.00000000       0.00000000                  NaN
          79              NaN              NaN              NaN              NaN              NaN              NaN              NaN              NaN              NaN   0.00000000       0.00000000                  NaN
          80              NaN              NaN              NaN              NaN              NaN              NaN              NaN              NaN              NaN   0.00000000       0.00000000                  NaN
          81              NaN              NaN              NaN              NaN              NaN              NaN              NaN              NaN              NaN   0.00000000       0.00000000                  NaN
          82              NaN              NaN              NaN              NaN              NaN              NaN              NaN              NaN              NaN   0.00000000       0.00000000                  NaN
          83              NaN              NaN              NaN              NaN              NaN              NaN              NaN              NaN              NaN   0.00000000       0.00000000                  NaN
          84              NaN              NaN              NaN              NaN              NaN              NaN              NaN              NaN              NaN   0.00000000       0.00000000                  NaN
          85              NaN              NaN              NaN              NaN              NaN              NaN              NaN              NaN              NaN   0.00000000       0.00000000                  NaN
          86              NaN              NaN              NaN              NaN              NaN              NaN              NaN              NaN              NaN   0.00000000       0.00000000                  NaN
          87              NaN              NaN              NaN              NaN              NaN              NaN              NaN              NaN              NaN   0.00000000       0.00000000                  NaN
          88              NaN              NaN              NaN              NaN              NaN              NaN              NaN              NaN              NaN   0.00000000       0.00000000                  NaN
          89              NaN              NaN              NaN              NaN              NaN              NaN              NaN              NaN              NaN   0.00000000       0.00000000                  NaN
          90              NaN              NaN              NaN              NaN              NaN              NaN              NaN              NaN              NaN   0.00000000       0.00000000                  NaN
          91              NaN              NaN              NaN              NaN              NaN              NaN              NaN              NaN              NaN   0.00000000       0.00000000                  NaN
          92              NaN              NaN              NaN              NaN              NaN              NaN              NaN              NaN              NaN   0.00000000       0.00000000                  NaN
          93              NaN              NaN              NaN              NaN              NaN              NaN              NaN              NaN              NaN   0.00000000       0.00000000                  NaN
          94              NaN              NaN              NaN              NaN              NaN              NaN              NaN              NaN              NaN   0.00000000       0.00000000                  NaN
          95              NaN              NaN              NaN              NaN              NaN              NaN              NaN              NaN              NaN   0.00000000       0.00000000                  NaN
          96              NaN              NaN              NaN              NaN              NaN              NaN              NaN              NaN              NaN   0.00000000       0.00000000                  NaN
          97              NaN              NaN              NaN              NaN              NaN              NaN              NaN              NaN              NaN   0.00000000       0.00000000                  NaN
          98              NaN              NaN              NaN              NaN              NaN              NaN              NaN              NaN              NaN   0.00000000       0.00000000                  NaN
          99              NaN              NaN              NaN              NaN              NaN              NaN              NaN              NaN              NaN   0.00000000       0.00000000                  NaN
         100              NaN              NaN              NaN              NaN              NaN              NaN              NaN              NaN              NaN   0.00000000       0.00000000                  NaN
         101              NaN              NaN              NaN              NaN              NaN              NaN              NaN              NaN              NaN   0.00000000       0.00000000                  NaN
         102              NaN              NaN              NaN              NaN              NaN              NaN              NaN              NaN              NaN   0.00000000       0.00000000                  NaN
         103              NaN              NaN              NaN              NaN              NaN              NaN              NaN              NaN              NaN   0.00000000       0.00000000                  NaN
         104              NaN              NaN              NaN              NaN              NaN              NaN              NaN              NaN              NaN   0.00000000       0.00000000                  NaN
         105              NaN              NaN              NaN              NaN              NaN              NaN              NaN              NaN              NaN   0.00000000       0.00000000                  NaN
         106              NaN              NaN              NaN              NaN              NaN              NaN              NaN              NaN              NaN   0.00000000       0.00000000                  NaN
         107              NaN              NaN              NaN              NaN              NaN              NaN              NaN              NaN              NaN   0.00000000       0.00000000                  NaN
         108              NaN              NaN              NaN              NaN              NaN              NaN              NaN              NaN              NaN   0.00000000       0.00000000                  NaN
         109              NaN              NaN              NaN              NaN              NaN              NaN              NaN              NaN              NaN   0.00000000       0.00000000                  NaN
         110              NaN              NaN              NaN              NaN              NaN              NaN              NaN              NaN              NaN   0.00000000       0.00000000                  NaN
         111              NaN              NaN              NaN              NaN              NaN              NaN              NaN              NaN              NaN   0.00000000       0.00000000                  NaN
         112              NaN              NaN              NaN              NaN              NaN              NaN              NaN              NaN              NaN   0.00000000       0.00000000                  NaN
         113              NaN              NaN              NaN              NaN              NaN              NaN              NaN              NaN              NaN   0.00000000       0.00000000                  NaN
         114              NaN              NaN              NaN              NaN              NaN              NaN              NaN              NaN              NaN   0.00000000       0.00000000                  NaN
         115              NaN              NaN              NaN              NaN              NaN              NaN              NaN              NaN              NaN   0.00000000       0.00000000                  NaN
         116              NaN              NaN              NaN              NaN              NaN              NaN              NaN              NaN              NaN   0.00000000       0.00000000                  NaN
         117              NaN              NaN              NaN              NaN              NaN              NaN              NaN              NaN              NaN   0.00000000       0.00000000                  NaN
         118              NaN              NaN              NaN              NaN              NaN              NaN              NaN              NaN              NaN   0.00000000       0.00000000                  NaN
         119              NaN              NaN              NaN              NaN              NaN              NaN              NaN              NaN              NaN   0.00000000       0.00000000                  NaN
         120              NaN              NaN              NaN              NaN              NaN              NaN              NaN              NaN              NaN   0.00000000       0.00000000                  NaN
         121              NaN              NaN              NaN              NaN              NaN              NaN              NaN              NaN              NaN   0.00000000       0.00000000                  NaN
         122              NaN              NaN              NaN              NaN              NaN              NaN              NaN              NaN              NaN   0.00000000       0.00000000                  NaN
 #=======================STRUCTURE TYPES:FCC+HCP=======================
 #GRAIN NUMBER| COORDINATES: X Y Z | STRESS XX YY ZZ ZY XZ XY | GRAIN VOLUME | NUMBER OF ATOMS | VON-MISES STRESS |
 #AVERAGE VON MISES STRESS FOR THIS STRUCTURE TYPE IS   1005.83215    
           1   409.045227       1145.99756       96.2897263       160.384644      -1136.83899       85.1703644      -93.5038910       78.3009033       79.0649338       3022296.25       172909.000       1286.17749    
           2   371.941528       1054.75159       98.3265381       4.20561647      -991.967896       54.4972115      -101.132011       12.1852760      -81.3059616       2110221.00       120648.000       1046.87659    
           3   833.236023       705.774475       95.9507065       86.2991943      -949.909912       94.8597412      -65.4828033      -13.0778503       34.9285431       2947842.50       168751.000       1048.67065    
           4   1287.27795       663.659607       93.6211319      -250.045273      -1146.84753       81.9168320       205.890915      -36.9971046       122.735306       2473156.25       141280.000       1178.40100    
           5   458.354431       280.807495       100.240494       3.53245258      -1100.90051       101.762329      0.211914659       67.9108810       41.3215828       1399554.00       79945.0000       1164.84668    
           6   105.775764       923.617188       97.5700150       240.206161      -823.601807       82.4172211      -28.5053253       26.2576160      -89.0205994       3750146.75       214946.000       1008.46802    
           7   685.740479       156.762451       93.5469666      -53.0413704      -801.100403       67.1417847      -258.550415      -4.23683929       5.03677607       2615682.00       149648.000       929.846924    
           8   1492.27124       331.971893       95.4308014       203.374588      -829.301331       56.8158188      -39.7171364       7.61226845      -37.6727867       2752151.50       157628.000       972.478882    
           9   679.075073       348.177948       97.2897263      -115.566391      -821.482727       178.874634       212.194305      -111.580254       29.1571045       1689248.38       96550.0000       983.790771    
          10   1072.69727       790.196899       96.5406647      -92.0751343      -987.430969       4.48433256      -125.200424       15.3091106      -37.7516365       1133724.75       64717.0000       974.394714    
          11   1010.74274       287.232880       95.0670013      -280.030273      -710.543274       122.388878       32.2615204       35.1379700       16.4155464       2044110.12       117009.000       726.749023    
          12   489.059753       413.836151       101.398796      -99.1112366      -965.027649       103.124550      -118.205154      -63.4913864      -24.8227291       1651597.88       94384.0000       1010.78638    
          13   504.238342       212.635239       102.896355       164.303558      -1107.02856      0.494975805       69.6236267       38.5047760       3.08798599       1325272.88       75703.0000       1205.77051    
          14   290.264313       649.594482       98.5484695      -50.9019890      -1107.92346       81.4104309      -151.678284       124.706413      -127.409134       1799774.12       102843.000       1199.59631    
          15   1598.43262       308.063812       95.2950516       446.512360      -747.168152       54.7202301       60.7168350      -37.5712090       1.87897480       2163615.00       124060.000       1061.13367    
          16   202.345200       328.983887       97.4095840       490.890900      -189.650513       61.3070717      -82.0245361      -67.7071381      -30.3007088       1729490.62       99237.0000       626.115417    
          17   1195.07922       1041.75964       91.8231583       198.023071      -855.553284       114.351227       108.411102       53.9776230      -88.1720886       2422416.50       138569.000       1046.99194    
          18   505.000305       807.689331       100.350365       497.240540      -961.272278       25.8672390      -54.0102501      -16.9029408       25.1923637       2387755.25       136838.000       1293.62317    
          19   1376.49194       683.270447       103.779694      -8.34594154      -1039.47729       71.6958771       93.8817444       98.0929108      -39.3746147       2472474.25       141356.000       1100.96838    
          20   1061.71570       1231.30945       97.4333038       162.351074      -755.928833       72.0912552      -10.7539120       105.235008      -10.3225641       1795450.00       102822.000       895.762756    
          21   432.914978       1002.33362       96.2119598       72.5827942      -842.348450       112.736656       172.761414       52.7760086      -140.567673       2174697.75       124541.000       1016.18048    
          22   1449.80493       1195.96716       97.0940704      -80.7184906      -1132.39636       56.2301178      0.394121885      -91.9725494       56.9518967       2680267.25       153266.000       1141.89099    
          23   79.6831207       650.269470       100.447609       267.247498      -539.145508       113.022430       259.653625       38.1516876      -30.2895584       1799928.12       103211.000       871.245178    
          24   1246.51880       496.146149       101.131042       41.2575989      -669.665222       69.8439865      -159.099609      -32.0378036       49.5699844       4404919.00       252340.000       782.904907    
          25   1464.56409       645.774292       99.7104492      -154.229462      -657.163513       37.6022682      -63.4161835      -133.954071       67.7447128       4112562.25       235387.000       682.557495    
          26   1315.36597       554.887878       93.5139008       215.678085      -970.626099       175.878082      -166.660950       15.6540556       27.0512905       2272908.25       130105.000       1203.30579    
          27   88.4192123       98.8141403       97.9826431       248.972702      -384.420746       122.404747       35.1514130       25.1136189      -70.5037537       2130693.75       122219.000       597.955444    
          28   207.627808       377.134369       96.4624176       73.2130432      -1445.78784      -43.2039604       113.672234       15.5735445      -98.5708694       1448718.12       82694.0000       1487.52124    
          29   1597.03503       928.988464       103.459129      -162.132446      -859.059998       87.7577133      -280.599365       51.7453384      -49.9684792       1863448.88       106599.000       986.934509    
          30   1360.28674       780.381348       94.5668488       352.510162      -848.945740       97.1291962      -95.0301361       35.5892906       56.6581192       1615135.88       92441.0000       1114.63416    
          31   1100.25244       1098.59265       95.9902344       348.183228      -1005.87231       79.0853577       126.098366       50.1161270      -44.0953712       2353677.25       134731.000       1265.92932    
          32   1555.52686       1158.41736       97.5628586       145.556274      -679.963196       154.579102      -1.22201359      -58.6892700       18.2390556       1336263.38       76541.0000       836.867981    
          33   1370.37378       102.116432       100.966972       173.770660      -726.262390       33.9451408       82.5398788       28.5386295      -74.7399673       1758273.12       100729.000       862.208313    
          34   562.016479       131.928558       103.172546      -323.436310      -1544.07581      -19.7998524      -286.022705      -100.963997      -55.0532379       1011167.06       57597.0000       1495.95691    
          35   877.359863       1141.79944       96.6689606       409.831848      -458.751160       129.717941      -170.184616      -10.8086252      -12.1842165       1828191.88       104854.000       822.971619    
          36   681.267639       190.268646       97.1494446       168.182022      -595.733459       90.9819565      -217.408859       18.2592697       32.9879036       1935303.25       110933.000       822.567322    
          37   585.978699       305.956207       102.124657       90.1753693      -675.767456       114.511749     -0.364039063       51.7267799       80.3494797       1814280.50       103836.000       795.799194    
          38   1266.70349       443.307831       93.3224182       42.4916878      -797.108521       110.340698      -67.1430817      -14.5232410      -102.833168       2228271.25       127588.000       901.320862    
          39   1142.16418       548.605957       93.9171295       213.886963      -1033.99072       96.2258224      -53.2563591       68.3862076      -98.6024399       3758846.00       215194.000       1214.87549    
          40   931.656494       1231.73474       93.2799988       62.1437569      -991.541687       48.9004822       83.2401886       58.8144798      -23.3460140       1547173.25       88471.0000       1062.67285    
          41   1552.07971       163.664185       98.8001938      -54.5295448      -779.766174       43.5149155       200.854904       50.7038460      -55.8928146       2167720.25       124160.000       863.017395    
          42   1441.65845       473.813324       94.4745407       426.974182      -884.269470       109.924156      -76.3866196      -44.5834808       51.5331001       3275765.75       187787.000       1198.15918    
          43   211.462616       494.356964       98.2350769      -70.8268356      -1166.78186       6.93862963       311.421936       136.158630      -66.5267487       1657420.12       94693.0000       1285.39417    
          44   792.315796       866.336060       94.9054642       124.604439      -775.010925       103.135262      -186.929977      -8.37731457      -81.0551224       3452326.50       197680.000       956.662659    
          45   634.399597       826.100281       99.7178955       248.435898      -878.100098       171.665726       131.913589       28.6429901      -18.9278812       2329640.25       133449.000       1115.45166    
          46   1454.91516       166.655838       99.7805710       172.944458      -855.582764       91.1485596      -119.411133      -12.4939604      -22.1999760       1858599.12       106495.000       1012.49860    
          47   761.929016       1111.57544       99.0376587       330.331055      -909.467896       155.852142       176.857086      -90.3826752      -78.2387390       2252895.00       129074.000       1219.80811    
          48   873.695801       511.491699       93.5761490       469.482941      -999.728882       34.8222275      -42.1980934      -144.363312      -62.3946266       2834022.50       162391.000       1337.32886    
          49   1329.93884       775.475830       98.6411819      -122.430824      -626.843445       88.9128189       126.180656      -29.0018597       76.9488678       2631054.50       150629.000       688.297913    
          50   1000.68860       495.102997       94.3717651       414.651581      -554.167847       59.8038254      -410.755402       64.8931046      -1.84749365       1518537.25       87049.0000       1113.34998    
          51   571.591553       1027.80664       98.7774658       68.8232269      -1245.50354       19.4561119      -253.279755       120.634064      -1.07591915       1462844.12       83584.0000       1378.81116    
          52   138.547623       246.804916       95.3612595       95.9463272      -807.442383       65.5427704      -135.542969      -8.56623459       119.476425       2415997.00       138256.000       942.193726    
          53   721.133362       894.381409       96.1964645       215.152039      -566.238770       89.6673508       20.4595375       33.9523544       3.35110927       3420455.75       196217.000       730.077515    
          54   587.373352       465.953461       101.320610      -55.7767143      -1148.05920       79.0902939       165.963516       38.9864693      -97.6755142       2396895.25       136971.000       1214.24707    
          55   1585.05383       1238.88745       97.7143707       142.693008      -897.912109       97.4711304      -148.126984      -21.1647682       5.09406805       1924581.62       110229.000       1051.23376    
          56   683.259460       1204.69141       98.0632324      -122.942650      -1080.59692       89.2821274      -3.58759212       134.287582       64.3132477       1952507.75       111598.000       1109.92151    
          57   488.771606       113.999680       105.523895       331.184784      -803.288147       94.6933899       124.280258      -65.3124924      -20.7888298       1204573.50       68943.0000       1065.40808    
          58   830.570068       919.773743       95.4467468      -136.460297      -1362.32080       144.156006      -46.6095848      -49.8915901       35.5050507       1182875.62       67501.0000       1394.00232    
          59   1477.39844       526.072388       98.2129135       334.239227      -659.498169       108.713547       38.6354637       86.5775528      -53.3535767       2331284.25       133722.000       921.828369    
          60   1315.82935       946.883301       94.9329147      -27.0883617      -819.682739       88.3813705      -34.1396103      -103.240646      -36.4192314       2186634.00       125017.000       878.926208    
          61   1207.03223       903.584839       93.7140198       82.5337753      -1038.77673       97.3826294       23.2944527       68.8802643      -88.2918701       1754021.88       100267.000       1146.06091    
          62   1306.84131       1147.48438       95.4257660       299.969025      -610.281250       42.3113060      -16.3957996      -32.4688721       28.8636761       3478144.00       199441.000       816.626282    
          63   597.640564       145.478958       99.4076233       95.4478760      -855.217773       98.3481979      -221.753113       91.5919952      -95.0541382       1671099.75       95643.0000       1051.82092    
          64   382.915375       334.329376       97.4989014       106.658928      -1335.27930       110.517799       96.5814362       88.3625336      -26.3334370       1950817.50       111434.000       1462.27661    
          65   649.707092       1068.57922       95.8995361       540.369507      -975.575378       60.1580048      -339.071747      -26.6712990       111.541908       1887185.62       108146.000       1478.20349    
          66   116.874260       564.377869       99.0089417      -472.583160      -932.231689       43.8714752       112.336510       131.897964      -37.6987686       2028495.50       115900.000       899.834961    
          67   1370.74182       357.682831       94.6386032       61.5789680      -1008.08337       39.5720558      -151.913589       55.9460945      -16.0688095       1527158.00       87339.0000       1095.68225    
          68   105.776344       421.046112       97.6439743       498.042847      -833.132446       102.129150       213.652557      -54.5505219      -12.1431713       2017891.12       115666.000       1244.20923    
          69   137.288544       1098.01367       97.8743134       128.348221      -870.394653       18.1752758      -213.324463      -24.0656376       17.9961491       3782272.00       216526.000       1019.22620    
          70   272.120514       257.958252       98.1498718       42.7707901      -1192.27844       92.5669632      -93.6820679      -46.4390068       69.6833115       2697751.50       154122.000       1279.33313    
          71   1404.83948       1029.89062       99.9429016       331.048676      -785.978027       72.7937546      -286.904510       53.8381767      -14.2849121       2175688.00       124615.000       1132.35022    
          72   994.624329       1138.77258       94.5984955       507.584351      -1443.26294       50.5773735       118.250435      -12.3439188      -120.123055       1335368.62       76332.0000       1791.31372    
          73   136.749435       1100.96313       99.8121567       30.7274723      -774.499695       80.2236328      -27.7285919       22.3842812      -3.54671454       2786553.00       159526.000       833.392944    
          74   945.331787       390.064087       94.1771011       277.034424      -1069.59509       188.634521      -90.7463760       72.9964905       37.1428185       1589432.25       90982.0000       1321.74609    
          75   1429.92261       861.327759       99.4042435       262.237457      -562.624695       30.9054413      -143.280884      -13.1208000       114.797173       1904940.25       109160.000       802.953857    
          76   1352.07532       102.634712       98.1373138       41.5714073      -1302.33997       101.884384      -2.47414231      -15.4361315      -15.7984076       2140535.75       122332.000       1375.59912    
          77   982.587891       616.705383       97.0045013       172.580612      -557.701965       155.116379      -55.2735596      -29.1069851      -99.5039825       2250281.00       129002.000       749.849426    
          78   1145.54053       322.654144       95.2254868       281.651001      -1059.70703       88.1837997      -169.379654      -10.3936653      -33.7124519       3104136.00       177813.000       1291.10974    
          79   184.722015       757.316650       98.0435257       631.948181      -799.797607       88.4142685       134.117081       50.4024506       58.4081230       4028057.50       231083.000       1280.21118    
          80   562.713562       1181.18079       97.4857712       303.588867      -749.420227       40.1727257      -118.668030      -123.188004       117.089088       2377492.75       136299.000       1014.76019    
          81   771.319763       581.999756       93.5405502       244.608093      -651.991089       41.2470894      -159.243759      -31.9348297       158.994720       2061457.00       118177.000       904.370300    
          82   1068.39783       678.313721       95.7421036       67.6974411      -754.949280       99.8086472       3.88128066       64.1782608       7.53508520       1940938.75       111185.000       846.620911    
          83   1601.82056       1066.33057       100.642532       278.941956      -445.803680       2.93310976       122.821739       81.7499619      -30.9423161       1090476.75       62520.0000       685.257507    
          84   769.791504       262.195618       92.5749283      -70.3746796      -1373.14355       139.493927      -53.3477402      -42.9142952       80.4415436       2203763.25       125906.000       1431.13147    
          85   1077.36914       923.955750       94.3591461       383.875946      -852.044373       101.269531       64.8679428       10.2796192      -64.4197083       2489925.00       142621.000       1132.90637    
          86   1196.28821       1183.62708       95.1202316       336.780243      -860.147949       56.7946587      -27.5973129      -100.566811       20.5591259       3044001.00       174352.000       1099.90930    
          87   383.126801       708.550903       97.5722198       117.298607      -1181.76758       55.9800949       38.9946213      -18.6894360       5.47418499       5205249.00       297760.000       1271.76086    
          88   745.184143       443.053802       94.1070328       212.247498      -616.491699       48.8243484      -78.6507950      -88.5938797      -132.995270       2583574.25       148024.000       820.517090    
          89   595.596191       606.340942       98.0702820       214.968399      -948.226379       67.6387863      -114.523254       33.8198853       108.262329       3631108.50       207908.000       1131.94324    
          90   873.634216       300.233978       93.4861603      -142.507812      -786.004639       63.3957901      -26.3370705       39.2974968      -42.6247177       2629151.00       150404.000       775.336792    
          91   311.592133       419.428528       98.3112869      -245.413483      -1186.82251       17.8420982      -14.8850098       1.39891398      -168.893478       1655339.75       94459.0000       1135.61926    
          92   321.963684       555.262268       96.7037659       586.257385      -735.703247       198.207733       90.5499344      -110.243179       7.33724117       1653588.00       94880.0000       1202.66211    
          93   1168.35718       753.304932       88.6222076      -95.8117599      -785.315063       90.9389191      -1.70945239      -20.0292187       111.739014       2335111.75       133604.000       823.240479    
          94   1545.77161       788.856384       103.352631       551.436279      -980.691223       145.575836      -136.839127      -24.2991219      -69.0409012       2445565.00       140118.000       1400.91162    
          95   938.871643       924.772278       95.9159775      -79.8020554      -787.283142      -23.4607887       50.9575005      -42.2179565       112.988495       1786625.00       102242.000       771.362732    
          96   1263.99792       797.294861       92.7109833       448.892059      -1182.81311       64.2221375      -113.304565      -14.5458212      -20.0149593       1481134.50       84689.0000       1491.01147    
          97   971.806946       787.565979       100.219627       116.911858      -815.412415       92.4949112      -38.5988388      -102.883194       63.0382805       2240635.25       128283.000       946.153320    
          98   614.660034       945.767029       94.2316513      -153.818756      -1329.81348       17.0454655       165.505508       3.53073525      -51.0811043       1985247.25       113423.000       1305.04211    
          99   1065.84985       408.761261       94.7511978       556.158020      -376.707672       83.5418015      -296.052490       55.5947800      -5.08884192       1811233.75       104045.000       961.773560    
         100   370.394928       136.357742       101.488632       314.220734      -1080.72681       126.257881      -43.2813759      -10.3638802       76.5074310       3242728.25       185616.000       1320.04260    
         101   477.234894       853.686890       101.792824      -179.037292      -922.266052       87.6346588      -140.878845      -86.8600159       31.7700176       2233070.50       127649.000       952.314941    
         102   206.086472       179.093842       98.6904602       304.431183      -1080.60547       111.376526      -91.9019852       37.5668488      -48.7548676       3124768.25       178761.000       1313.35889    
         103   438.731079       528.038391       97.7512894       98.3188095      -1235.29785       68.4023132       9.05990982       36.5150795       26.6976013       3001085.75       171603.000       1321.33118    
         104   979.322754       1030.09033       95.5087509       302.984283      -741.764465       78.2270813      -61.9040260       12.0822201      -6.42690706       1830164.38       104892.000       958.780029    
         105   1018.18518       165.123779       95.0894547      -85.3535919      -829.039612       25.4777164      -30.7294960       21.3402615       9.55116177       3644040.75       208479.000       807.619324    
         106   1501.73560       925.250610       102.315681      -96.3138733      -847.886169       56.7312851      -8.20464897       26.8070889       42.2586555       1587715.75       90810.0000       843.222046    
         107   857.616089       817.460876       96.1839142       849.771484      -954.241455       189.407242       177.014954       83.5910339      -67.7101288       1776771.38       101949.000       1621.09753    
         108   839.050537       135.930511       92.1019363      -24.6785851      -1060.00024       98.9550018       131.538803      -67.8404999       49.8870468       3297588.75       188583.000       1135.05823    
         109   1093.62134       351.727173       98.0729752       50.3163528      -652.538818       164.124466      -129.850449      -1.11553967       58.2138748       2483381.50       142257.000       804.799316    
         110   1255.95886       298.516693       95.5101624       191.598190      -880.269165       49.6859360      -243.549820       64.3686752       36.0241508       2217962.50       127046.000       1100.54541    
         111   237.136490       1191.74438       96.6339111       19.9094372      -954.371460      -8.32312965      -42.6521606     -0.876779079       29.5382462       3793074.00       216959.000       964.671631    
         112   1510.73022       1048.23328       100.482285       426.238983      -1000.74658       89.1831970       158.331833      -76.0621872      -31.3284359       1608854.62       90059.0000       1328.31787    
         113   1211.57288       127.281921       97.7825394      -39.4048424      -953.628235       68.3464432       134.990234      -34.1203995      -3.00483441       4566667.50       229883.000       1002.05304    
         114   1354.23804       233.716492       98.7648239       220.245010      -553.034851       54.9802361       12.7828741      -32.8005219      -21.4914379       2446515.25       123864.000       708.929993    
         115   238.725815       629.352051       98.5168228      -181.738693      -1005.98810       122.727554      -125.739655      -54.2065926       61.8034592       2005605.62       100450.000       1044.38904    
         116   754.705688       1172.76221       99.1000366       56.7186317      -820.774658       70.3902435      -113.591805       15.6093254       42.4244919       2201656.00       110667.000       909.405212    
         117   302.997986       942.050354       96.1039810       258.251068      -970.465698       10.3335896      -31.5218544      -36.8426666       24.6050205       7043887.50       355407.000       1129.36133    
         118   839.750244       1023.65820       96.0583038       356.860931      -947.045288      -14.2490997       105.757507       33.2658005       18.0715675       1841305.12       93340.0000       1179.76904    
         119   949.422852       502.055481       93.1142349      -90.8309326      -970.014099       51.9712677      -43.2901611      -8.61625671       61.1969719       2870907.00       145866.000       967.463135    
         120   686.348450       706.256836       94.5082092       130.322418      -764.307068       32.3831520      -131.518127       11.9788160      -31.4027672       3591657.25       185078.000       881.824646    
         121   526.071533       829.146790       97.1645126       533.503357      -814.255127       52.7569351      -123.264801      -13.5380621       10.6269312       6266955.50       318658.000       1202.54370    
         122   527.254639       1039.05444       94.5658722       39.3543053      -760.550842       74.7140579       66.8504639      -40.3618584      -58.0141678       2144497.75       108770.000       835.328735    
 #=======================STRUCTURE TYPES:FCC+HCP+other defects=======================
 #GRAIN NUMBER| COORDINATES: X Y Z | STRESS XX YY ZZ ZY XZ XY | GRAIN VOLUME | NUMBER OF ATOMS | VON-MISES STRESS |
 #AVERAGE VON MISES STRESS FOR THIS STRUCTURE TYPE IS   761.851013    
           1   410.859161       1144.91638       96.7101898       19.9328918      -928.396240       9.33101940      -60.3431511       55.4738235       53.8299751       4458327.00       192129.000       958.245972    
           2   372.550568       1052.68811       97.8466721      -115.105171      -835.436096      -33.9794464      -78.3376236       13.9097862      -60.1639595       3236417.25       139104.000       783.419006    
           3   832.136902       708.771851       95.9718857      -52.9214439      -802.385498       2.57284737      -52.2515450      -6.06578636       19.8085003       4296639.00       186963.000       784.758057    
           4   1286.85046       661.486694       93.0737686      -280.890686      -916.860413       9.70482635       140.407501      -27.1955662       78.9888458       3716964.75       155631.000       868.212219    
           5   459.721863       285.118042       100.169716      -143.612488      -904.762695      -21.5689526      -14.7590542       46.3032036       33.0080757       2289425.25       96915.0000       835.159729    
           6   106.906403       922.683716       97.5031815       71.7709579      -723.343262       19.4624767      -19.3974171       20.7625732      -62.2909393       5279398.00       229950.000       779.367737    
           7   687.537659       158.720901       93.0866776      -158.908356      -703.355164       13.7509499      -183.238632      -7.92480564       4.39774370       3821780.50       166047.000       721.950806    
           8   1493.89673       333.003387       95.3934784       7.46652985      -705.956665      -28.1086349      -29.3076630       3.42282939      -28.1103439       4295072.50       186459.000       699.886169    
           9   679.137939       346.378815       96.9648514      -247.477737      -743.646606      -9.25078773       144.714813      -67.6951141       19.3036003       2876676.25       124068.000       706.278503    
          10   1073.43884       793.710693       96.2115250      -225.350555      -831.538818      -120.036232      -66.3055649       11.2939196      -7.33673096       2036361.25       86352.0000       675.373291    
          11   1012.95734       288.056793       95.2926865      -321.829010      -643.293762       27.2124729       25.3394718       26.7892570       11.7468987       2926611.00       127995.000       584.694153    
          12   489.954651       411.798004       102.685509      -165.276276      -792.001831       18.9436588      -96.5347595      -41.5822601      -12.5708418       2580777.00       109704.000       758.811890    
          13   502.615814       212.668961       103.617462     -0.460334092      -916.274902      -42.7997513       51.8092575       15.9596100      -1.03536808       2092832.12       89607.0000       900.307678    
          14   290.495392       622.454102       98.7296829      -180.145325      -944.480469      -9.34639072      -99.9039459       86.9648666      -85.4300003       2699489.25       117474.000       904.684509    
          15   1598.79041       305.191772       95.4863129       209.019836      -660.862671      -8.67852020       36.9679222      -29.6666965      -6.92106295       3253233.75       142821.000       788.416199    
          16   228.666153       328.833466       97.0312881       243.067444      -216.129959      -13.8042412      -55.0869255      -48.2354431      -26.0249882       2828047.00       122913.000       420.720917    
          17   1195.59924       1042.96326       91.8671112      -4.98947096      -747.807129       5.51910305       71.0648727       33.2908592      -64.2530823       3863942.25       167013.000       768.475952    
          18   497.712128       807.325256       100.233910       271.724335      -830.278198      -25.6508141      -36.5051079      -12.8058567       23.3975277       3321149.25       145551.000       990.588501    
          19   1379.08032       680.194946       104.058205      -150.295059      -866.186401      -17.8510780       72.5453262       67.4038773      -27.0921955       3775944.50       163086.000       810.233093    
          20   1060.33862       1232.46106       96.9064789       2.47117162      -678.564941      -2.32114434       3.99911976       77.8902435      -13.9788609       2647045.50       115521.000       692.390259    
          21   429.528259       1001.12933       96.3076706      -91.2507324      -720.472412      -1.85705054       96.4932251       33.6968613      -100.716286       3464309.50       150360.000       722.447388    
          22   1448.02246       1195.91541       97.3812561      -158.091446      -941.400269      -3.75679779       9.35946178      -64.3331909       41.9922981       3812406.00       166320.000       881.052063    
          23   85.4222107       653.088196       100.879730       82.8043671      -503.984100       30.6362000       183.312515       24.4620628      -21.0629787       2737884.00       119301.000       648.357178    
          24   1212.15796       496.791260       101.196663      -78.5178375      -592.767090       8.19952869      -105.145447      -26.2487926       30.1965580       6503233.00       277977.000       595.429016    
          25   1465.20337       644.997559       99.7954636      -233.969803      -590.563721      -30.8922100      -38.6246567      -98.3868332       44.1930542       6068771.50       260988.000       529.330322    
          26   1314.70496       555.466064       93.6501999       13.0295868      -824.761169       33.5377274      -124.024208       15.9509001       17.6878872       3432339.75       149667.000       875.981384    
          27   89.3326340       99.1419525       97.4509048       50.9261360      -409.882721       3.09311652       12.7048311       15.5223999      -46.4983826       3157621.75       138138.000       447.531342    
          28   208.780365       373.596771       96.8063126      -79.9371338      -1134.30200      -93.6379547       79.6718826       14.0376043      -71.3281631       2296401.75       98826.0000       1064.10742    
          29   1594.01587       928.403320       103.220512      -244.560516      -746.728394       3.20529914      -197.982239       41.9829369      -30.9584827       2720952.25       118167.000       750.822449    
          30   1360.03064       779.773193       94.2847061       111.997993      -711.145508      -3.15491366      -78.3079300       24.6655121       33.9430008       2622788.75       111342.000       787.220398    
          31   1100.16650       1095.93176       95.7030106       113.383080      -879.577881      -7.00253916       92.7286758       34.3479958      -31.0086632       3381674.25       148050.000       955.586609    
          32   1557.40784       1158.60547       97.3715897      -30.5950851      -622.217529       35.6270828       3.63437009      -51.9006729       12.3486652       2105542.00       91413.0000       634.160156    
          33   1369.51343       105.289787       100.874825       8.76651287      -643.414062      -48.3288193       56.6045494       25.3497448      -48.4612770       2694740.50       116949.000       640.272156    
          34   560.767334       139.237183       103.777908      -403.978882      -1253.27344      -126.925636      -195.708801      -57.0098877      -27.8948555       1604417.12       69321.0000       1077.19543    
          35   877.466125       1142.67590       96.5385208       161.730438      -438.808624       15.4970379      -122.559357       4.20792246      -14.6871090       2787118.75       121548.000       583.073853    
          36   668.726990       190.389526       96.3367767       18.7289104      -556.337708       11.7785835      -160.706696       14.9105148       20.8622208       2794513.00       121023.000       637.342590    
          37   585.680420       305.707001       101.577919      -92.4216843      -629.480896      -22.2665768      -3.78666711       36.0327873       53.1757851       2943638.25       126966.000       586.048523    
          38   1268.02832       443.982330       93.4198685      -93.4671707      -691.585388      -3.84958458      -37.2214928      -6.57364035      -78.5884857       3300951.00       144837.000       664.975952    
          39   1142.69092       548.628052       93.7818222       62.5738678      -869.737610       41.0441437      -41.3481102       49.5025635      -71.3867950       5204426.50       228753.000       936.677368    
          40   933.125305       1234.61011       93.5822830      -110.943657      -879.987915      -65.8716888       70.9251099       48.4308701      -21.6281109       2425135.25       105294.000       807.250854    
          41   1552.51611       163.536148       98.8815460      -150.526093      -683.976196      -8.26053143       149.215347       38.9742279      -38.4305077       3040566.75       132300.000       675.635559    
          42   1442.44104       474.598907       94.5624161       242.348343      -738.839050       46.0897522      -50.2440109      -31.1115780       38.6707077       4608132.50       202587.000       907.547852    
          43   211.235107       496.056000       98.1969376      -184.643433      -973.159119      -55.6865158       224.643784       102.329559      -56.5279388       2490669.50       108444.000       965.642883    
          44   792.629822       837.253296       94.5335846      -19.0625763      -677.639282       16.8280449      -135.652176      -6.85872984      -59.6728706       5138843.00       222852.000       724.345520    
          45   635.287903       811.911560       99.6210861       48.5395432      -745.446472       52.8796883       86.0323334       19.8710995      -17.1563816       3522224.75       153572.000       811.265076    
          46   1454.30554       165.067551       99.8147049       5.37386799      -748.138184      -1.16593480      -86.0917664      -4.20089769      -14.5975561       2653446.00       116277.000       765.390686    
          47   763.117554       1113.36792       98.7168655       121.297112      -759.279236       62.7869301       108.350220      -62.7902031      -44.2622719       3352457.00       145866.000       883.312012    
          48   874.387878       514.499878       93.9161377       220.045990      -863.308533      -25.5095482      -25.6102295      -104.913925      -45.3348503       4086753.50       178836.000       1004.53229    
          49   1330.25464       765.555054       98.4957581      -196.333496      -572.113098      -3.54969358       86.1001968      -25.0250416       46.3533134       3980947.00       172704.000       530.456848    
          50   998.850342       496.578339       94.5397873       152.688660      -526.822388      -50.1695290      -273.390930       46.4217682       3.06443048       2405887.50       104895.000       771.856995    
          51   596.232361       1026.85767       98.8609619      -100.734589      -1014.30243      -72.5277176      -170.249481       83.9455490      -2.98451352       2308167.75       98679.0000       984.526611    
          52   141.067810       246.703125       95.8662415      -57.2230949      -707.740112      -38.8407402      -93.0931320      -10.0294018       83.2889557       3698145.75       158550.000       694.679993    
          53   722.006653       895.864502       96.1887436       54.8286743      -543.448364       12.6468306       13.3644733       18.1431961     -0.211276755       4895706.50       213696.000       579.656616    
          54   584.622253       469.065826       100.987541      -179.833618      -963.855103      -5.36959743       112.320854       36.7587433      -64.6475220       3648611.25       158298.000       914.521973    
          55   1583.63269       1227.96472       97.8165283      -28.8254604      -773.567139       9.89410496      -104.245567      -10.5441780      -1.60057580       2795280.25       122451.000       786.077698    
          56   686.457886       1206.95996       98.5186920      -237.805801      -929.631775      -49.8756981      -14.7960653       96.9025269       44.5454178       3002117.25       131313.000       823.854248    
          57   490.841461       113.284035       104.815819       78.0894394      -697.809509      -3.65021300       89.7132263      -56.9655838      -9.30570698       1942954.50       83874.0000       761.195923    
          58   832.904236       919.832886       95.1739426      -279.135040      -1129.68298      -56.2248077      -39.0493393      -34.1510658       40.9557114       2021729.12       87738.0000       987.837097    
          59   1479.26270       550.441589       97.8684311       121.049774      -600.974548       11.2280092       27.6466026       58.1054115      -35.0690536       3576093.25       155652.000       685.709290    
          60   1313.50378       951.804016       94.9781418      -120.073341      -702.638245      -11.3558788      -26.1092548      -78.1677780      -30.6236286       3452086.50       147378.000       661.608215    
          61   1208.29834       905.619446       93.1981201      -77.5099487      -850.127930     -0.754267573       26.2758923       37.9299011      -68.9229889       2714102.50       116214.000       826.299744    
          62   1308.43115       1148.71265       95.2822800       123.547600      -551.915161      -8.49388981      -10.8880806      -23.9912434       16.9514866       4839072.50       212793.000       622.446960    
          63   596.470520       145.676193       98.4257431      -39.8742180      -726.449280       18.7757702      -147.834900       63.9050446      -62.4111557       2472377.00       105672.000       777.557251    
          64   382.979156       332.663086       97.2979507      -60.8276291      -1072.44592       7.90408373       70.8423920       59.6313782      -13.5034399       2967814.50       126294.000       1060.13989    
          65   651.903809       1066.66919       96.0755310       295.656830      -775.237305      -6.60471010      -228.229782      -18.7166157       77.2730255       2856465.50       122640.000       1043.89514    
          66   118.535934       564.955872       98.9054947      -440.588196      -787.752869      -26.8984184       76.4440994       89.1554031      -26.1808910       3017900.00       129066.000       691.891968    
          67   1370.84937       356.294891       94.7314606      -123.737518      -826.246338      -80.8653793      -103.449364       44.7816505      -3.26759219       2532947.00       110145.000       750.751770    
          68   107.505234       421.199554       97.3080292       291.377197      -701.706055       58.0814629       158.843170      -35.0681534      -11.7648592       2946363.75       128604.000       942.739197    
          69   135.346039       1096.18469       97.7962418      -15.1035433      -759.110107      -38.7674713      -155.580917      -14.5585184       14.4479809       5503783.00       239442.000       781.266968    
          70   273.430664       258.105530       98.1744385      -81.1152802      -962.778625       17.3091373      -69.6887741      -32.2729225       48.3155670       3972273.25       171507.000       947.888306    
          71   1403.95361       1029.40613       99.6960144       90.7080307      -672.366760      -9.98859692      -194.605667       39.4691849      -16.0795155       3402216.00       148512.000       796.647400    
          72   996.470093       1137.52405       94.4152298       257.055389      -1116.24329      -6.42788744       88.8841476      -4.18785048      -91.8756027       2071544.38       90006.0000       1281.64294    
          73   152.809204       1084.87183       99.8378372      -113.410103      -692.671326      -26.0423927      -18.4113617       16.2636681      0.325527579       4186416.50       182679.000       628.964355    
          74   945.453247       393.141998       93.5817032       64.2068100      -898.675781       60.8937798      -69.5510788       47.1005325       30.0135078       2370103.75       103719.000       973.567444    
          75   1428.39990       859.132874       98.9888306       92.8873062      -501.602448      -39.7467880      -114.461029      -12.2943640       82.8218689       2921952.75       125685.000       593.713806    
          76   1342.25684       113.797401       98.4534378      -98.1283493      -1050.72363      -12.9206467      -6.64826488      -7.62553787      -13.0882673       3180594.00       139083.000       998.342346    
          77   979.847473       616.832458       97.0385818       25.0698185      -511.721039       45.0511894      -39.7901878      -17.5221786      -73.9180069       3385267.00       146706.000       566.861511    
          78   1146.93835       323.421295       95.2322617       58.9161453      -908.528198      -3.01893544      -115.042702      -6.33638191      -22.6922817       4560823.50       198954.000       959.810181    
          79   184.567200       756.925049       98.1176376       379.933472      -676.876343       32.4392471       90.0023041       40.3957405       36.5192680       5802268.00       253470.000       950.558594    
          80   562.018250       1181.19067       97.5903854       118.585030      -662.624451      -15.9836321      -94.8419724      -91.3983307       83.7556686       3352719.75       146874.000       772.244568    
          81   770.711914       578.830872       94.0318680       68.1357574      -555.225342      -19.1946297      -115.835411      -30.2199574       108.815918       3126211.75       135072.000       648.292542    
          82   1068.09021       679.424316       96.1827316      -36.4662743      -652.714539       52.6096611       3.66391230       42.4160233       9.76375198       2721155.25       119091.000       669.561768    
          83   1601.85938       1070.24390       100.389549       93.1034317      -408.780853      -42.3405533       88.6993179       59.9615555      -11.0809383       1757657.12       76398.0000       486.839722    
          84   769.563904       263.942596       92.3788757      -166.734131      -1144.03662       62.3950424      -40.4209518      -29.7285023       62.2750053       3059101.50       133749.000       1118.36328    
          85   1076.39124       922.841309       94.3343430       184.099548      -700.487488       42.7051010       48.3358498       2.61431408      -39.2495041       3719911.25       161049.000       830.097595    
          86   1198.14148       1170.50403       95.2370148       146.250748      -734.204651      0.410321444      -12.0917521      -67.1536560       18.5188675       4532719.50       196833.000       826.475281    
          87   384.518250       708.403870       97.8474121      -30.1035061      -985.385925      -21.2912445       30.2835922      -13.8180962       7.11365032       7599278.00       333270.000       961.528076    
          88   747.506897       442.126373       94.5990219       49.6236458      -552.659668      -13.0700884      -48.8788338      -56.5227776      -97.3411255       3869032.50       166635.000       611.632324    
          89   596.805359       607.766663       97.6486282       39.8026505      -787.076843      -23.3846149      -82.2525024       18.9509735       75.2241440       5566843.50       242109.000       820.867798    
          90   872.345642       304.717072       92.8063812      -221.498672      -704.421997      -22.9481392      -15.6980820       29.3041039      -30.7790604       3953491.50       170289.000       612.110718    
          91   309.940216       420.782837       98.7975769      -319.303101      -966.003418      -69.4655228      -14.3193140       3.77248335      -117.268929       2631323.75       110124.000       827.117859    
          92   322.547638       554.445007       96.5001068       280.227600      -657.442200       90.6460953       53.3123016      -74.1063995       3.90043855       2549107.75       110628.000       873.182922    
          93   1167.57617       752.987854       88.5925751      -179.045288      -680.641113       17.8111782      -1.96977079      -16.9038048       82.3295822       3502952.00       148575.000       640.543945    
          94   1548.35339       789.183899       103.649361       274.226013      -776.146484       65.8193207      -93.3520050      -7.41281748      -42.0570221       3749573.00       161700.000       979.503052    
          95   938.589783       926.041992       96.3839493      -162.096069      -688.865845      -59.4108353       27.7243843      -22.1359711       81.2085724       2601822.75       112854.000       604.716919    
          96   1263.15576       797.598328       92.6918945       112.676437      -939.801880      -49.7131920      -76.2278442      -5.86431074      -16.5182552       2507154.00       105210.000       990.718506    
          97   970.823792       784.473083       99.9554062      -43.1458893      -714.867981       17.1847992      -25.6313076      -64.9111404       42.5323944       3365243.25       145194.000       717.923462    
          98   614.215088       948.356750       94.8639908      -255.441635      -1114.28882      -68.5382538       121.749992       7.11102676      -37.9424438       2848297.00       124131.000       990.965454    
          99   1065.94934       409.638885       94.8644180       313.031647      -372.819580       24.3571625      -222.082199       38.9313393     -0.762969792       2600325.50       114408.000       712.914673    
         100   369.870178       134.626328       101.331345       121.622269      -907.489990       52.9401512      -26.8520317      -10.6844254       50.5880661       4610471.00       200382.000       1001.64398    
         101   477.733368       836.618958       102.556305      -243.607162      -791.828918      -2.32771993      -104.856758      -66.0658951       22.6793556       3314928.00       143829.000       733.934265    
         102   207.614700       186.960068       98.6937714       104.035912      -889.337646       20.9817486      -68.9849319       24.1240540      -37.4506340       4625453.50       200655.000       965.098694    
         103   436.707672       527.199707       97.6845779      -41.8215675      -1015.96265       6.53850651       4.46986723       26.9724579       16.1401253       4343826.50       187845.000       1000.71130    
         104   980.902100       1030.79358       95.5458374       79.6789169      -646.816650       8.29877281      -46.9327469       11.0198679      -3.60848355       2813613.00       122619.000       698.602173    
         105   1017.41620       163.805298       95.1761932      -169.803207      -714.659363      -38.3102417      -26.9958038       18.1701279       9.33420944       5336555.00       231966.000       623.892273    
         106   1502.67773       925.087891       102.569809      -174.897202      -713.107849      -14.1358347      -2.80193591       25.2548943       30.1435547       2369355.00       101472.000       637.731323    
         107   858.995056       817.628601       96.1720276       490.919830      -758.903076       81.2211151       110.514366       54.7675133      -46.0358887       2725809.00       118461.000       1126.87891    
         108   837.820801       134.133316       91.6721420      -106.342133      -874.510376       41.8157234       94.7789307      -51.4542198       34.6830711       4646536.00       203763.000       874.267639    
         109   1095.27161       388.579773       98.0533524      -114.655495      -599.447815       2.81129456      -80.2964478      -5.36661100       42.0686913       3871738.50       168063.000       574.897644    
         110   1252.20691       298.008942       95.3564148       19.0474644      -764.727356      -31.4160042      -181.592834       38.0873222       13.8428812       3393206.25       147756.000       825.319458    
         111   237.681915       1192.49402       96.7665329      -102.766464      -819.116577      -64.2457733      -29.5612888      -5.59193039       26.5119400       5584550.50       240597.000       739.634827    
         112   1511.10632       1045.58008       100.899361       178.037872      -835.223938      0.513150632       117.750877      -49.5109482      -30.0031281       2480968.25       108444.000       964.357727    
         113   1213.07422       125.054558       98.1163330      -85.3039780      -865.330933       38.5133629       119.614929      -29.2287579      -3.81952739       5623305.50       246666.000       875.147766    
         114   1351.97180       232.231949       98.7464752       117.482071      -519.492065       9.76766872       10.3118286      -25.6232414      -22.3001995       3068425.25       134841.000       593.723572    
         115   239.332367       629.677734       98.2248230      -283.629089      -914.556519       12.6104603      -102.682716      -47.1597366       55.1613350       2808329.50       120435.000       848.625122    
         116   725.061340       1172.74988       99.7266769       6.85792112      -726.488770       40.1007919      -95.3841858       18.2397594       43.6427917       2841987.25       122010.000       772.843811    
         117   300.016724       941.624146       95.5935211       157.112808      -858.539368      -10.3967972      -24.0696335      -30.2266617       19.8288918       8980216.00       389886.000       946.116211    
         118   839.829407       1025.10486       96.1274719       226.508713      -797.463928      -48.3637886       72.2927475       22.9590836       13.5664845       2648462.75       113736.000       927.591064    
         119   947.596619       482.758636       93.0539856      -166.850067      -875.545898      -15.9389267      -25.6293125      -6.08278179       41.4748154       3819521.25       165459.000       799.509949    
         120   685.217957       708.269653       94.5519180       72.6643143      -679.087769       6.82639408      -113.401428       4.81974459      -24.8223171       4681261.50       206388.000       748.645386    
         121   524.631958       828.875488       97.1012039       403.971497      -749.564758       28.4915905      -108.044708      -11.2216806       9.22999382       7640916.00       338772.000       1036.41479    
         122   529.401367       1039.76172       94.1834564      -38.9876175      -714.154358       27.4249363       39.7437248      -31.9595680      -37.9109421       2898923.50       126966.000       719.176575    
 #=======================ALL STRUCTURE TYPES=======================
 #GRAIN NUMBER| COORDINATES: X Y Z | STRESS XX YY ZZ ZY XZ XY | GRAIN VOLUME | NUMBER OF ATOMS | VON-MISES STRESS |
 #AVERAGE VON MISES STRESS FOR THIS STRUCTURE TYPE IS   761.850891    
           1   410.859161       1144.91638       96.7101898       19.9328918      -928.396240       9.33101940      -60.3431511       55.4738235       53.8299751       4458327.00       192129.000       958.245972    
           2   372.550568       1052.68811       97.8466721      -115.105171      -835.436096      -33.9794464      -78.3376236       13.9097862      -60.1639595       3236417.25       139104.000       783.419006    
           3   832.136902       708.771851       95.9718857      -52.9214439      -802.385498       2.57284737      -52.2515450      -6.06578636       19.8085003       4296639.00       186963.000       784.758057    
           4   1286.85046       661.486694       93.0737686      -280.890686      -916.860413       9.70482635       140.407501      -27.1955662       78.9888458       3716964.75       155631.000       868.212219    
           5   459.721863       285.118042       100.169716      -143.612488      -904.762695      -21.5689526      -14.7590542       46.3032036       33.0080757       2289425.25       96915.0000       835.159729    
           6   106.906403       922.683716       97.5031815       71.7709579      -723.343262       19.4624767      -19.3974171       20.7625732      -62.2909393       5279398.00       229950.000       779.367737    
           7   687.537659       158.720901       93.0866776      -158.908356      -703.355164       13.7509499      -183.238632      -7.92480564       4.39774370       3821780.50       166047.000       721.950806    
           8   1493.89673       333.003387       95.3934784       7.46652985      -705.956665      -28.1086349      -29.3076630       3.42282939      -28.1103439       4295072.50       186459.000       699.886169    
           9   679.137939       346.378815       96.9648514      -247.477737      -743.646606      -9.25078773       144.714813      -67.6951141       19.3036003       2876676.25       124068.000       706.278503    
          10   1073.43884       793.710693       96.2115250      -225.350555      -831.538818      -120.036232      -66.3055649       11.2939196      -7.33673096       2036361.25       86352.0000       675.373291    
          11   1012.95734       288.056793       95.2926865      -321.829010      -643.293762       27.2124729       25.3394718       26.7892570       11.7468987       2926611.00       127995.000       584.694153    
          12   489.954651       411.798004       102.685509      -165.276276      -792.001831       18.9436588      -96.5347595      -41.5822601      -12.5708418       2580777.00       109704.000       758.811890    
          13   502.615814       212.668961       103.617462     -0.460334092      -916.274902      -42.7997513       51.8092575       15.9596100      -1.03536808       2092832.12       89607.0000       900.307678    
          14   290.495392       622.454102       98.7296829      -180.145325      -944.480469      -9.34639072      -99.9039459       86.9648666      -85.4300003       2699489.25       117474.000       904.684509    
          15   1598.79041       305.191772       95.4863129       209.019836      -660.862671      -8.67852020       36.9679222      -29.6666965      -6.92106295       3253233.75       142821.000       788.416199    
          16   228.666153       328.833466       97.0312881       243.067444      -216.129959      -13.8042412      -55.0869255      -48.2354431      -26.0249882       2828047.00       122913.000       420.720917    
          17   1195.59924       1042.96326       91.8671112      -4.98947096      -747.807129       5.51910305       71.0648727       33.2908592      -64.2530823       3863942.25       167013.000       768.475952    
          18   497.712128       807.325256       100.233910       271.724335      -830.278198      -25.6508141      -36.5051079      -12.8058567       23.3975277       3321149.25       145551.000       990.588501    
          19   1379.08032       680.194946       104.058205      -150.295059      -866.186401      -17.8510780       72.5453262       67.4038773      -27.0921955       3775944.50       163086.000       810.233093    
          20   1060.33862       1232.46106       96.9064789       2.47117162      -678.564941      -2.32114434       3.99911976       77.8902435      -13.9788609       2647045.50       115521.000       692.390259    
          21   429.528259       1001.12933       96.3076706      -91.2507324      -720.472412      -1.85705054       96.4932251       33.6968613      -100.716286       3464309.50       150360.000       722.447388    
          22   1448.02246       1195.91541       97.3812561      -158.091446      -941.400269      -3.75679779       9.35946178      -64.3331909       41.9922981       3812406.00       166320.000       881.052063    
          23   85.4222107       653.088196       100.879730       82.8043671      -503.984100       30.6362000       183.312515       24.4620628      -21.0629787       2737884.00       119301.000       648.357178    
          24   1212.15796       496.791260       101.196663      -78.5178375      -592.767090       8.19952869      -105.145447      -26.2487926       30.1965580       6503233.00       277977.000       595.429016    
          25   1465.20337       644.997559       99.7954636      -233.969803      -590.563721      -30.8922100      -38.6246567      -98.3868332       44.1930542       6068771.50       260988.000       529.330322    
          26   1314.70496       555.466064       93.6501999       13.0295868      -824.761169       33.5377274      -124.024208       15.9509001       17.6878872       3432339.75       149667.000       875.981384    
          27   89.3326340       99.1419525       97.4509048       50.9261360      -409.882721       3.09311652       12.7048311       15.5223999      -46.4983826       3157621.75       138138.000       447.531342    
          28   208.780365       373.596771       96.8063126      -79.9371338      -1134.30200      -93.6379547       79.6718826       14.0376043      -71.3281631       2296401.75       98826.0000       1064.10742    
          29   1594.01587       928.403320       103.220512      -244.560516      -746.728394       3.20529914      -197.982239       41.9829369      -30.9584827       2720952.25       118167.000       750.822449    
          30   1360.03064       779.773193       94.2847061       111.997993      -711.145508      -3.15491366      -78.3079300       24.6655121       33.9430008       2622788.75       111342.000       787.220398    
          31   1100.16650       1095.93176       95.7030106       113.383080      -879.577881      -7.00253916       92.7286758       34.3479958      -31.0086632       3381674.25       148050.000       955.586609    
          32   1557.40784       1158.60547       97.3715897      -30.5950851      -622.217529       35.6270828       3.63437009      -51.9006729       12.3486652       2105542.00       91413.0000       634.160156    
          33   1369.51343       105.289787       100.874825       8.76651287      -643.414062      -48.3288193       56.6045494       25.3497448      -48.4612770       2694740.50       116949.000       640.272156    
          34   560.767334       139.237183       103.777908      -403.978882      -1253.27344      -126.925636      -195.708801      -57.0098877      -27.8948555       1604417.12       69321.0000       1077.19543    
          35   877.466125       1142.67590       96.5385208       161.730438      -438.808624       15.4970379      -122.559357       4.20792246      -14.6871090       2787118.75       121548.000       583.073853    
          36   668.726990       190.389526       96.3367767       18.7289104      -556.337708       11.7785835      -160.706696       14.9105148       20.8622208       2794513.00       121023.000       637.342590    
          37   585.680420       305.707001       101.577919      -92.4216843      -629.480896      -22.2665768      -3.78666711       36.0327873       53.1757851       2943638.25       126966.000       586.048523    
          38   1268.02832       443.982330       93.4198685      -93.4671707      -691.585388      -3.84958458      -37.2214928      -6.57364035      -78.5884857       3300951.00       144837.000       664.975952    
          39   1142.69092       548.628052       93.7818222       62.5738678      -869.737610       41.0441437      -41.3481102       49.5025635      -71.3867950       5204426.50       228753.000       936.677368    
          40   933.125305       1234.61011       93.5822830      -110.943657      -879.987915      -65.8716888       70.9251099       48.4308701      -21.6281109       2425135.25       105294.000       807.250854    
          41   1552.51611       163.536148       98.8815460      -150.526093      -683.976196      -8.26053143       149.215347       38.9742279      -38.4305077       3040566.75       132300.000       675.635559    
          42   1442.44104       474.598907       94.5624161       242.348343      -738.839050       46.0897522      -50.2440109      -31.1115780       38.6707077       4608132.50       202587.000       907.547852    
          43   211.235107       496.056000       98.1969376      -184.643433      -973.159119      -55.6865158       224.643784       102.329559      -56.5279388       2490669.50       108444.000       965.642883    
          44   792.629822       837.253296       94.5335846      -19.0625763      -677.639282       16.8280449      -135.652176      -6.85872984      -59.6728706       5138843.00       222852.000       724.345520    
          45   635.288391       811.906311       99.6211395       48.6118736      -745.365540       52.9313927       86.0364532       19.8534698      -17.1517029       3522240.25       153573.000       811.246094    
          46   1454.30554       165.067551       99.8147049       5.37386799      -748.138184      -1.16593480      -86.0917664      -4.20089769      -14.5975561       2653446.00       116277.000       765.390686    
          47   763.117554       1113.36792       98.7168655       121.297112      -759.279236       62.7869301       108.350220      -62.7902031      -44.2622719       3352457.00       145866.000       883.312012    
          48   874.387878       514.499878       93.9161377       220.045990      -863.308533      -25.5095482      -25.6102295      -104.913925      -45.3348503       4086753.50       178836.000       1004.53229    
          49   1330.25464       765.555054       98.4957581      -196.333496      -572.113098      -3.54969358       86.1001968      -25.0250416       46.3533134       3980947.00       172704.000       530.456848    
          50   998.850342       496.578339       94.5397873       152.688660      -526.822388      -50.1695290      -273.390930       46.4217682       3.06443048       2405887.50       104895.000       771.856995    
          51   596.232361       1026.85767       98.8609619      -100.734589      -1014.30243      -72.5277176      -170.249481       83.9455490      -2.98451352       2308167.75       98679.0000       984.526611    
          52   141.067810       246.703125       95.8662415      -57.2230949      -707.740112      -38.8407402      -93.0931320      -10.0294018       83.2889557       3698145.75       158550.000       694.679993    
          53   722.006653       895.864502       96.1887436       54.8286743      -543.448364       12.6468306       13.3644733       18.1431961     -0.211276755       4895706.50       213696.000       579.656616    
          54   584.622253       469.065826       100.987541      -179.833618      -963.855103      -5.36959743       112.320854       36.7587433      -64.6475220       3648611.25       158298.000       914.521973    
          55   1583.63269       1227.96472       97.8165283      -28.8254604      -773.567139       9.89410496      -104.245567      -10.5441780      -1.60057580       2795280.25       122451.000       786.077698    
          56   686.457886       1206.95996       98.5186920      -237.805801      -929.631775      -49.8756981      -14.7960653       96.9025269       44.5454178       3002117.25       131313.000       823.854248    
          57   490.841461       113.284035       104.815819       78.0894394      -697.809509      -3.65021300       89.7132263      -56.9655838      -9.30570698       1942954.50       83874.0000       761.195923    
          58   832.904236       919.832886       95.1739426      -279.135040      -1129.68298      -56.2248077      -39.0493393      -34.1510658       40.9557114       2021729.12       87738.0000       987.837097    
          59   1479.26270       550.441589       97.8684311       121.049774      -600.974548       11.2280092       27.6466026       58.1054115      -35.0690536       3576093.25       155652.000       685.709290    
          60   1313.50378       951.804016       94.9781418      -120.073341      -702.638245      -11.3558788      -26.1092548      -78.1677780      -30.6236286       3452086.50       147378.000       661.608215    
          61   1208.29834       905.619446       93.1981201      -77.5099487      -850.127930     -0.754267573       26.2758923       37.9299011      -68.9229889       2714102.50       116214.000       826.299744    
          62   1308.43115       1148.71265       95.2822800       123.547600      -551.915161      -8.49388981      -10.8880806      -23.9912434       16.9514866       4839072.50       212793.000       622.446960    
          63   596.470520       145.676193       98.4257431      -39.8742180      -726.449280       18.7757702      -147.834900       63.9050446      -62.4111557       2472377.00       105672.000       777.557251    
          64   382.979156       332.663086       97.2979507      -60.8276291      -1072.44592       7.90408373       70.8423920       59.6313782      -13.5034399       2967814.50       126294.000       1060.13989    
          65   651.903809       1066.66919       96.0755310       295.656830      -775.237305      -6.60471010      -228.229782      -18.7166157       77.2730255       2856465.50       122640.000       1043.89514    
          66   118.535934       564.955872       98.9054947      -440.588196      -787.752869      -26.8984184       76.4440994       89.1554031      -26.1808910       3017900.00       129066.000       691.891968    
          67   1370.84937       356.294891       94.7314606      -123.737518      -826.246338      -80.8653793      -103.449364       44.7816505      -3.26759219       2532947.00       110145.000       750.751770    
          68   107.505234       421.199554       97.3080292       291.377197      -701.706055       58.0814629       158.843170      -35.0681534      -11.7648592       2946363.75       128604.000       942.739197    
          69   135.346039       1096.18469       97.7962418      -15.1035433      -759.110107      -38.7674713      -155.580917      -14.5585184       14.4479809       5503783.00       239442.000       781.266968    
          70   273.430664       258.105530       98.1744385      -81.1152802      -962.778625       17.3091373      -69.6887741      -32.2729225       48.3155670       3972273.25       171507.000       947.888306    
          71   1403.95361       1029.40613       99.6960144       90.7080307      -672.366760      -9.98859692      -194.605667       39.4691849      -16.0795155       3402216.00       148512.000       796.647400    
          72   996.470093       1137.52405       94.4152298       257.055389      -1116.24329      -6.42788744       88.8841476      -4.18785048      -91.8756027       2071544.38       90006.0000       1281.64294    
          73   152.809204       1084.87183       99.8378372      -113.410103      -692.671326      -26.0423927      -18.4113617       16.2636681      0.325527579       4186416.50       182679.000       628.964355    
          74   945.453247       393.141998       93.5817032       64.2068100      -898.675781       60.8937798      -69.5510788       47.1005325       30.0135078       2370103.75       103719.000       973.567444    
          75   1428.39990       859.132874       98.9888306       92.8873062      -501.602448      -39.7467880      -114.461029      -12.2943640       82.8218689       2921952.75       125685.000       593.713806    
          76   1342.25684       113.797401       98.4534378      -98.1283493      -1050.72363      -12.9206467      -6.64826488      -7.62553787      -13.0882673       3180594.00       139083.000       998.342346    
          77   979.847473       616.832458       97.0385818       25.0698185      -511.721039       45.0511894      -39.7901878      -17.5221786      -73.9180069       3385267.00       146706.000       566.861511    
          78   1146.93835       323.421295       95.2322617       58.9161453      -908.528198      -3.01893544      -115.042702      -6.33638191      -22.6922817       4560823.50       198954.000       959.810181    
          79   184.567200       756.925049       98.1176376       379.933472      -676.876343       32.4392471       90.0023041       40.3957405       36.5192680       5802268.00       253470.000       950.558594    
          80   562.018250       1181.19067       97.5903854       118.585030      -662.624451      -15.9836321      -94.8419724      -91.3983307       83.7556686       3352719.75       146874.000       772.244568    
          81   770.711914       578.830872       94.0318680       68.1357574      -555.225342      -19.1946297      -115.835411      -30.2199574       108.815918       3126211.75       135072.000       648.292542    
          82   1068.09021       679.424316       96.1827316      -36.4662743      -652.714539       52.6096611       3.66391230       42.4160233       9.76375198       2721155.25       119091.000       669.561768    
          83   1601.85938       1070.24390       100.389549       93.1034317      -408.780853      -42.3405533       88.6993179       59.9615555      -11.0809383       1757657.12       76398.0000       486.839722    
          84   769.563904       263.942596       92.3788757      -166.734131      -1144.03662       62.3950424      -40.4209518      -29.7285023       62.2750053       3059101.50       133749.000       1118.36328    
          85   1076.39124       922.841309       94.3343430       184.099548      -700.487488       42.7051010       48.3358498       2.61431408      -39.2495041       3719911.25       161049.000       830.097595    
          86   1198.14148       1170.50403       95.2370148       146.250748      -734.204651      0.410321444      -12.0917521      -67.1536560       18.5188675       4532719.50       196833.000       826.475281    
          87   384.518250       708.403870       97.8474121      -30.1035061      -985.385925      -21.2912445       30.2835922      -13.8180962       7.11365032       7599278.00       333270.000       961.528076    
          88   747.506897       442.126373       94.5990219       49.6236458      -552.659668      -13.0700884      -48.8788338      -56.5227776      -97.3411255       3869032.50       166635.000       611.632324    
          89   596.805359       607.766663       97.6486282       39.8026505      -787.076843      -23.3846149      -82.2525024       18.9509735       75.2241440       5566843.50       242109.000       820.867798    
          90   872.345642       304.717072       92.8063812      -221.498672      -704.421997      -22.9481392      -15.6980820       29.3041039      -30.7790604       3953491.50       170289.000       612.110718    
          91   309.940216       420.782837       98.7975769      -319.303101      -966.003418      -69.4655228      -14.3193140       3.77248335      -117.268929       2631323.75       110124.000       827.117859    
          92   322.547638       554.445007       96.5001068       280.227600      -657.442200       90.6460953       53.3123016      -74.1063995       3.90043855       2549107.75       110628.000       873.182922    
          93   1167.57617       752.987854       88.5925751      -179.045288      -680.641113       17.8111782      -1.96977079      -16.9038048       82.3295822       3502952.00       148575.000       640.543945    
          94   1548.35339       789.183899       103.649361       274.226013      -776.146484       65.8193207      -93.3520050      -7.41281748      -42.0570221       3749573.00       161700.000       979.503052    
          95   938.589783       926.041992       96.3839493      -162.096069      -688.865845      -59.4108353       27.7243843      -22.1359711       81.2085724       2601822.75       112854.000       604.716919    
          96   1263.15576       797.598328       92.6918945       112.676437      -939.801880      -49.7131920      -76.2278442      -5.86431074      -16.5182552       2507154.00       105210.000       990.718506    
          97   970.823792       784.473083       99.9554062      -43.1458893      -714.867981       17.1847992      -25.6313076      -64.9111404       42.5323944       3365243.25       145194.000       717.923462    
          98   614.215088       948.356750       94.8639908      -255.441635      -1114.28882      -68.5382538       121.749992       7.11102676      -37.9424438       2848297.00       124131.000       990.965454    
          99   1065.94934       409.638885       94.8644180       313.031647      -372.819580       24.3571625      -222.082199       38.9313393     -0.762969792       2600325.50       114408.000       712.914673    
         100   369.870178       134.626328       101.331345       121.622269      -907.489990       52.9401512      -26.8520317      -10.6844254       50.5880661       4610471.00       200382.000       1001.64398    
         101   477.733368       836.618958       102.556305      -243.607162      -791.828918      -2.32771993      -104.856758      -66.0658951       22.6793556       3314928.00       143829.000       733.934265    
         102   207.614700       186.960068       98.6937714       104.035912      -889.337646       20.9817486      -68.9849319       24.1240540      -37.4506340       4625453.50       200655.000       965.098694    
         103   436.707672       527.199707       97.6845779      -41.8215675      -1015.96265       6.53850651       4.46986723       26.9724579       16.1401253       4343826.50       187845.000       1000.71130    
         104   980.902100       1030.79358       95.5458374       79.6789169      -646.816650       8.29877281      -46.9327469       11.0198679      -3.60848355       2813613.00       122619.000       698.602173    
         105   1017.41620       163.805298       95.1761932      -169.803207      -714.659363      -38.3102417      -26.9958038       18.1701279       9.33420944       5336555.00       231966.000       623.892273    
         106   1502.67773       925.087891       102.569809      -174.897202      -713.107849      -14.1358347      -2.80193591       25.2548943       30.1435547       2369355.00       101472.000       637.731323    
         107   858.995056       817.628601       96.1720276       490.919830      -758.903076       81.2211151       110.514366       54.7675133      -46.0358887       2725809.00       118461.000       1126.87891    
         108   837.820801       134.133316       91.6721420      -106.342133      -874.510376       41.8157234       94.7789307      -51.4542198       34.6830711       4646536.00       203763.000       874.267639    
         109   1095.27161       388.579773       98.0533524      -114.655495      -599.447815       2.81129456      -80.2964478      -5.36661100       42.0686913       3871738.50       168063.000       574.897644    
         110   1252.20691       298.008942       95.3564148       19.0474644      -764.727356      -31.4160042      -181.592834       38.0873222       13.8428812       3393206.25       147756.000       825.319458    
         111   237.681915       1192.49402       96.7665329      -102.766464      -819.116577      -64.2457733      -29.5612888      -5.59193039       26.5119400       5584550.50       240597.000       739.634827    
         112   1511.10632       1045.58008       100.899361       178.037872      -835.223938      0.513150632       117.750877      -49.5109482      -30.0031281       2480968.25       108444.000       964.357727    
         113   1213.07422       125.054558       98.1163330      -85.3039780      -865.330933       38.5133629       119.614929      -29.2287579      -3.81952739       5623305.50       246666.000       875.147766    
         114   1351.97180       232.231949       98.7464752       117.482071      -519.492065       9.76766872       10.3118286      -25.6232414      -22.3001995       3068425.25       134841.000       593.723572    
         115   239.332367       629.677734       98.2248230      -283.629089      -914.556519       12.6104603      -102.682716      -47.1597366       55.1613350       2808329.50       120435.000       848.625122    
         116   725.061340       1172.74988       99.7266769       6.85792112      -726.488770       40.1007919      -95.3841858       18.2397594       43.6427917       2841987.25       122010.000       772.843811    
         117   300.016724       941.624146       95.5935211       157.112808      -858.539368      -10.3967972      -24.0696335      -30.2266617       19.8288918       8980216.00       389886.000       946.116211    
         118   839.829407       1025.10486       96.1274719       226.508713      -797.463928      -48.3637886       72.2927475       22.9590836       13.5664845       2648462.75       113736.000       927.591064    
         119   947.596619       482.758636       93.0539856      -166.850067      -875.545898      -15.9389267      -25.6293125      -6.08278179       41.4748154       3819521.25       165459.000       799.509949    
         120   685.217957       708.269653       94.5519180       72.6643143      -679.087769       6.82639408      -113.401428       4.81974459      -24.8223171       4681261.50       206388.000       748.645386    
         121   524.631958       828.875488       97.1012039       403.971497      -749.564758       28.4915905      -108.044708      -11.2216806       9.22999382       7640916.00       338772.000       1036.41479    
         122   529.401367       1039.76172       94.1834564      -38.9876175      -714.154358       27.4249363       39.7437248      -31.9595680      -37.9109421       2898923.50       126966.000       719.176575    
