 #*********************PERSONAL PROGRAMMING PROJECT**************************
 #AUTHOR: PADMANABHA PAVAN CHANDRA VUNDURTHY(62750) (MSc.Computational Materials Science)  under the supervision of DR. ARUN PRAKASH
 #TITLE: Big Data Visualization of Large and Ultra Large Scale Atomistic Simulation
 #Analysis of Average Properties of the Grain separated  in blocks of structure types: 0=Other Unknown Defects,1=FCC,2=HCP,3=BCC,... FCC+HCP, FCC+HCP+0, All structure types.
 #file name->           1 :=Sorted_00000_GrNUM.txt
 #file attribites in sequence::==    18632909          11           8
 #file name->           2 :=Sorted_Stress_00001.txt
 #file attribites in sequence::==    18632910          13           9
 #Macroscopic Von Mises Stress:->   36.3856125    
 #=======================STRUCTURE TYPE->           0 =======================
 #GRAIN NUMBER| COORDINATES: X Y Z | STRESS XX YY ZZ ZY XZ XY | GRAIN VOLUME | NUMBER OF ATOMS | VON-MISES STRESS |
 #AVERAGE VON MISES STRESS FOR THIS STRUCTURE TYPE IS   326.650848    
           1   432.741547       1034.44836       77.3495483      -811.026428      -716.803345      -610.946533      -67.5365067      -79.6209946      0.659035504       421322.719       19788.0000       250.521774    
           2   406.115051       799.608459       75.9181824      -788.860413      -770.771240      -828.792480      -9.57763577      -51.3218269      -16.3815689       306090.750       14305.0000       107.824753    
           3   888.489624       655.835632       75.8183670      -991.877747      -1033.17993      -637.436768      -8.16437721      -11.8227434      -10.1940355       357057.094       16269.0000       378.027161    
           4   1384.20996       608.589966       74.7481461      -805.394714      -679.517151      -609.736267       39.5209618      -7.58723354      -53.8090324       350403.250       16527.0000       207.468140    
           5   497.694275       259.767578       75.0820389      -669.968750      -781.577637      -383.774933      -30.9644871       17.8341599       81.4959717       287461.625       14031.0000       387.376526    
           6   130.113358       840.379150       76.5878983      -1086.48950      -1087.50867      -653.679321      -28.2191124      -73.8073578      -100.556442       424181.031       19193.0000       486.655029    
           7   769.827271       155.372955       75.8221893      -808.344543      -846.308472      -412.757996       21.1091900      -73.2035675       6.44057941       336378.031       15630.0000       436.446472    
           8   1624.18860       313.299194       76.5558319      -679.990845      -593.929016      -372.642731       5.53026962       15.0568819       68.6287231       501773.250       24454.0000       300.533112    
           9   743.418335       303.223938       77.0325699      -773.728394      -693.703735      -789.049011       60.4842644       41.1435814      -8.10856247       368593.094       17951.0000       155.291214    
          10   1151.30005       723.310974       76.9029770      -501.962891      -298.072021      -412.825043       74.8614120       73.2609558      -49.4360123       272336.688       13450.0000       267.560455    
          11   1126.58228       257.324890       77.2834473      -602.725464      -707.894653      -817.555054       25.7849636      -17.5692596      -37.6587715       336139.812       16153.0000       204.435898    
          12   543.836975       351.313690       77.5519562      -813.284973      -812.297546      -469.028229       23.2262840       15.3496704      -20.2469254       265500.156       12665.0000       348.896515    
          13   529.162170       187.050354       76.2216034      -710.003174      -670.335205      -298.208069      -62.6268845       43.2074242      -30.2604313       292890.344       14571.0000       418.243713    
          14   307.664246       508.551666       76.3852615      -720.233215      -564.227783      -528.043396      -15.7117195       23.6106396       82.0408173       303005.188       14574.0000       232.157303    
          15   1733.97314       270.553009       76.8233414      -754.375183      -930.757996      -390.836334      -14.8211527      -16.9994793      -78.0294495       337119.219       16053.0000       497.177155    
          16   708.928894       315.666779       76.9113159      -608.619019      -786.770508      -317.247192       18.4688454      -40.9863129       51.3136711       324527.344       15738.0000       427.207214    
          17   1294.36084       948.118286       76.9160538      -571.489929      -832.604309      -292.712952      -9.76564789      -49.3924370       14.6376820       427822.719       20776.0000       476.379822    
          18   593.924805       721.379211       75.6586533      -1086.09094      -866.227051      -667.543701      -57.3408775      -15.5207167      -124.159706       269466.875       12201.0000       433.972351    
          19   1287.80591       601.410278       76.8024521      -733.278625      -836.402893      -399.716766      -11.7273788       33.3333969       8.09501076       402635.969       19315.0000       400.298615    
          20   1131.69824       1125.99902       76.3123703      -875.842590      -982.650757      -494.604736       51.8273582       23.7355022       13.0347471       215199.844       9794.00000       455.771484    
          21   453.341003       909.125244       76.4666443      -759.030151      -843.186523      -447.797699      -6.44706249      -39.2174606       16.1598949       393557.219       18968.0000       368.323608    
          22   1556.86877       1080.55469       75.4864807      -916.226624      -1030.62085      -325.841064       1.76506376      -20.1628628       106.220314       333511.469       15445.0000       681.362671    
          23   64.0333176       595.339172       75.9362106      -936.080688      -978.175903      -422.508972      -63.8120270      -49.2292557       107.777634       263335.812       12418.0000       584.364075    
          24   992.215576       459.316132       75.0406265      -1132.43066      -1158.69617      -551.078857       7.45950937      -13.0121326      -34.5318069       466899.688       20858.0000       598.482666    
          25   1586.65747       600.721985       76.9979019      -1113.02942      -998.060669      -589.133179      -24.3848858      -22.2088833       50.7378731       477434.031       21622.0000       488.303131    
          26   1419.48242       517.992737       76.2396622      -699.999207      -878.550781      -686.997192       49.8789139      -39.2118454      -135.210388       395318.031       18964.0000       318.265961    
          27   84.1235657       92.9419479       76.3966064      -858.131104      -707.361633      -802.770874      -60.9660339       38.4694939      -7.58636236       309649.625       14479.0000       182.242950    
          28   222.524658       320.382294       76.8099289      -880.661926      -784.881775      -571.594421       16.4166069       12.2184534      -89.6977539       284957.250       13879.0000       316.997589    
          29   1617.87366       832.300293       75.2613373      -1082.21082      -1127.95947      -398.712555      -9.29895210      -24.2657738       82.5025330       207283.750       9315.00000       723.172119    
          30   1467.62134       705.440186       75.5393219      -838.715027      -876.696106      -460.774445      -50.1371880       16.5291862       20.7925797       272290.875       13026.0000       410.236603    
          31   1185.11475       977.137451       77.0622482      -1018.94183      -963.467224      -603.282898       52.1719131      -2.12307262      -137.899597       307591.375       14252.0000       466.925476    
          32   1700.82214       1046.78857       76.6052780      -703.504761      -876.650024      -614.606140      -44.5244446      -28.1687241       65.1130066       233807.391       11163.0000       272.619598    
          33   1474.47852       96.7469864       76.7540741      -794.483154      -515.286743      -613.703308      -79.3457718      -31.6339741       23.4135056       308414.656       14794.0000       289.297180    
          34   595.448914       136.864243       76.2353897      -617.509521      -710.931213      -631.838501       29.6138725       62.9030991       86.0307159       199220.469       9674.00000       210.474442    
          35   949.435059       1027.06470       77.6665878      -829.102783      -857.135437      -640.829712       13.5273266      -7.65245962       100.066742       288318.875       13625.0000       268.840240    
          36   781.096619       189.839706       73.5024796      -968.674438      -1006.20087      -696.338074       30.5758839      -2.85749292       9.85064507       226101.438       10224.0000       298.186859    
          37   641.229553       259.981598       75.4362946      -1013.42065      -894.371277      -477.641296     -0.170445815       70.2738647      -86.7225647       348041.062       16885.0000       524.238342    
          38   1382.64978       407.503754       76.9350891      -717.543579      -713.481384      -819.194885       91.6800537      -73.7809067       175.677887       355845.594       16918.0000       380.653564    
          39   1247.36133       501.676941       76.2864075      -1054.97095      -916.232971      -692.273438      -21.3192291       59.2031441       23.5352840       458519.531       21203.0000       337.665619    
          40   998.754272       1122.58508       75.6034622      -543.181946      -739.866089      -591.807312      -27.5481415      -25.0196629      0.112792872       318055.688       15610.0000       188.785400    
          41   1682.45569       147.298828       76.5507584      -1161.11279      -1001.95660      -834.928772      -12.2120886       40.7223015      -129.935150       248963.781       11267.0000       368.624817    
          42   1567.55896       445.186340       76.4952545      -889.080322      -790.752258      -566.068176      -70.1801300       10.8138075       15.4440489       450727.469       21218.0000       313.187195    
          43   236.596725       447.984772       75.8357315      -460.897125      -923.498779      -365.542938       42.4324875      -64.9151993       124.538811       292678.375       14212.0000       576.000854    
          44   856.843140       576.190918       76.9641266      -1023.20227      -1212.56567      -455.987915      -54.0728340      -31.4322376      -76.1259155       392125.438       17667.0000       702.937622    
          45   694.886963       699.933228       76.7049866      -657.329285      -877.849365      -771.684692       70.7689514      -7.11409760       77.8309555       363261.188       17124.0000       264.269073    
          46   1572.26025       143.046356       77.4530945      -1135.54346      -902.937012      -892.051025       19.8755207       45.6752396       33.2656326       260437.484       12111.0000       259.846130    
          47   825.050537       1019.32043       75.8531647      -640.234924      -738.238892      -611.112671       15.3449297       41.0067940      -62.9563942       427342.688       20928.0000       175.922073    
          48   948.763428       471.848785       76.3991013      -826.316040      -845.096069      -533.783264       11.2839365      -47.6378708       12.4958172       432099.500       20562.0000       314.770416    
          49   1449.40747       637.631042       77.4828262      -837.846191      -1033.78796      -692.893860       54.1268272       47.0252457      -122.602493       348498.688       16115.0000       385.128479    
          50   1075.18811       459.198120       75.8880692      -870.410828      -684.503662      -652.563599      -27.2311726       4.21464491       57.7943153       286734.969       13904.0000       231.987015    
          51   848.574951       916.580017       76.8641052      -675.863037      -716.962036      -520.924194      -7.11152315       41.9619904       70.4724274       308825.938       15182.0000       228.902252    
          52   142.846573       215.926376       75.9067383      -853.457947      -938.781738      -740.038635      -6.23209667       54.3105278      -114.115891       374322.906       17721.0000       279.023621    
          53   778.059448       813.064758       76.4622345      -953.559509      -1257.86865      -519.314148      -25.4371605       24.0668411      -28.1492481       368904.031       16570.0000       647.590820    
          54   621.792969       419.005951       77.0564651      -780.653137      -723.528503      -363.686768       8.57864475      -11.7272110      -18.8732262       444321.594       21658.0000       393.709381    
          55   1705.64636       1008.34619       77.5257492      -781.875671      -721.306763      -433.109039       45.2044029      -8.99287415      -19.7192822       277518.281       13085.0000       334.248138    
          56   749.532471       1116.66785       77.8991547      -1043.69116      -1245.17322      -551.963989      0.181566209       39.0456161     -0.532590985       297362.844       13991.0000       621.320740    
          57   529.396851       105.410309       76.7646942      -639.294678      -632.121399      -449.151703      -25.6340179      0.447774380       9.32029057       259081.188       12737.0000       192.547073    
          58   894.049377       830.917236       77.1645050      -437.194580      -517.604004      -391.805573      -35.8645058       23.3851757       122.432709       292614.938       14500.0000       250.288300    
          59   1612.46411       624.293030       75.6722717      -1003.73358      -896.591003      -619.323853       15.9102898      -50.0410728       21.5457134       388991.250       18489.0000       357.390686    
          60   1409.98364       869.211304       74.6603088      -778.308167      -806.517883      -470.413940       6.47771406      -38.1931953       96.0340881       321583.156       15162.0000       369.391296    
          61   1301.96045       827.124634       75.6206894      -835.564941      -775.538574      -558.209778      -127.195816      -22.2637615      -36.2806168       330641.469       16068.0000       343.296722    
          62   1428.73669       1037.32483       76.8686600      -891.357239      -875.257385      -604.197144       31.4216576      -14.3863230       63.3938332       499973.469       23715.0000       306.163483    
          63   654.555786       129.053955       76.2591934      -871.667297      -994.575073      -850.079285       25.5339928      -86.8431091       93.7801895       276523.312       13223.0000       263.041809    
          64   414.237305       294.586365       76.6162338      -939.787231      -767.051392      -314.436279      -33.6751251       58.8795242       50.7027893       339540.656       16473.0000       578.269592    
          65   708.346497       955.417114       76.6565933      -956.814514      -982.374451      -560.492493       18.4905243      -31.8062534       2.97051716       277047.688       13011.0000       414.658295    
          66   147.421860       513.315002       76.5170746      -1065.57227      -1123.81665      -507.457886      -39.5733337      -18.3633518      -65.0753555       266987.344       12437.0000       604.818359    
          67   1486.58826       314.515015       75.7944412      -738.688965      -893.590027      -608.209167       30.7918530       40.5190048      -73.6422119       329233.719       16073.0000       292.010406    
          68   118.034225       370.029510       74.6953049      -929.998108      -738.835999      -651.246338       112.696548      -14.9337006       32.6016922       349189.938       16893.0000       320.808228    
          69   138.532806       991.822998       74.9538116      -1114.16345      -1081.45874      -610.787964       29.4257679       69.7786407       86.3803177       432675.281       19569.0000       526.861633    
          70   286.496368       233.027145       78.6025314      -971.973328      -1109.78992      -583.139282      -9.77514076       9.09479618      -31.4487495       382755.531       17967.0000       476.733673    
          71   1519.73499       912.469299       76.2431641      -886.961121      -852.515381      -189.809006       20.1436443      -36.2777557      -44.2870064       373628.438       18040.0000       688.653137    
          72   1079.95178       1031.26978       75.8164215      -929.299622      -654.816162      -454.214233       71.5354080      -33.0374908       113.636536       276540.969       13599.0000       477.504333    
          73   421.507141       881.541443       76.5422745      -729.515747      -888.472778      -669.665771      -28.4955978       3.32982469      0.310314834       437254.781       20860.0000       202.070480    
          74   1031.15894       365.885742       75.5566711      -872.928345      -756.901978      -695.642456      -23.2015381      -96.4464951       55.9455528       243368.672       11493.0000       251.461716    
          75   1537.90417       758.291443       76.5832977      -713.636108      -899.563477      -582.903870      -64.3952789      -7.85514355       13.6059170       320303.406       15357.0000       298.575500    
          76   1393.56006       162.562042       76.4213562      -946.239197      -940.319824      -786.653015       30.8393421      -30.3836403      -6.44560528       307482.344       14360.0000       174.084656    
          77   1051.75940       557.085205       75.5309219      -937.493652      -888.101746      -841.129211      -7.87358570      -37.5344048      -68.1657944       336540.188       15773.0000       159.117081    
          78   1262.60706       283.746368       75.1516495      -791.589905      -860.068542      -300.217194      -28.2527599       33.8345985       27.0761585       434938.500       20479.0000       536.482361    
          79   205.430206       681.844360       75.1689606      -905.048828      -897.761230      -350.864899      -58.0547791      -91.9004211      -72.4128952       527918.000       24736.0000       595.242249    
          80   602.064270       1069.98462       76.1640167      -1225.98718      -1017.36646      -523.550171       20.6274414      0.674770474       19.7440071       257606.984       11675.0000       626.773254    
          81   823.573792       495.738861       75.5404129      -1017.21436      -821.699951      -395.638123      -33.9176102      -14.6121664      -43.2119980       308524.656       14518.0000       559.239990    
          82   1139.30945       625.073914       74.3655396      -927.813538      -794.576904      -708.299072      -112.470230       71.8666153      -164.665390       274541.500       13026.0000       414.099487    
          83   1729.13782       973.219116       77.0335007      -689.187256      -724.048462      -380.384796      -67.3863602       16.3093643      -9.91059113       218123.562       10619.0000       349.363586    
          84   837.599854       255.873413       77.0141983      -1161.20544      -1067.65210      -498.901550      -100.669899      -39.0463943       175.462189       257697.578       11711.0000       716.083801    
          85   1155.08801       828.134521       76.5350647      -866.275574      -805.255859      -533.362732       8.14434814       45.0426064      -45.0841103       384650.781       18361.0000       326.532318    
          86   1304.28137       1018.82928       76.0860138      -1117.92224      -840.015991      -675.847168       5.12555504       14.2858534      -37.8792763       413485.375       19217.0000       393.449402    
          87   424.656708       641.060852       77.1151123      -823.496399      -1053.25305      -392.470032       59.3513184       13.6130180       122.251755       645293.438       29806.0000       627.346130    
          88   818.658203       395.009827       75.1855011      -1014.58313      -1157.57495      -579.674683      -17.0320282       41.6191635       20.6003056       349441.781       16185.0000       528.318298    
          89   650.163818       540.237976       75.5321579      -854.410706      -995.932861      -426.797852       7.68179035       33.5989342      -21.4631157       518283.219       24314.0000       518.018982    
          90   953.603577       282.263824       77.1078720      -845.596558      -1007.66101      -927.816467      -39.0913315       32.2042694      -85.4701462       379659.938       17723.0000       222.061386    
          91   335.776031       373.562469       76.1436157      -742.980652      -783.286255      -471.142212      -52.6487350       5.08447647      -150.769485       249710.734       11819.0000       403.812866    
          92   358.315216       492.415405       74.4410934      -771.320740      -906.947449      -512.341248       39.7875710       48.3490028       56.7071648       262976.312       12538.0000       376.827087    
          93   1244.34827       680.799255       78.0828552      -1039.63586      -1235.58386      -283.955353       21.7134743      -25.7157745       17.9980774       290209.406       13448.0000       872.864746    
          94   1696.29871       716.960815       77.8479309      -745.110840      -941.908081      -465.567230      -23.0521107      -11.5973368      -45.5204315       404117.000       19359.0000       424.383331    
          95   1007.91376       846.997314       77.3523560      -978.078491      -1239.78442      -587.394775      -65.5886765       24.6111755       136.711411       216901.578       9869.00000       627.822266    
          96   1358.61621       723.066895       77.0255051      -652.296570      -773.428650      -319.099792      -29.2582245      -17.5878086       83.3310394       345274.156       17200.0000       436.328094    
          97   1041.03113       693.019348       77.2334671      -973.038818      -1244.20435      -193.465042       54.9707489       19.6599693       34.1352539       287415.688       13248.0000       952.039978    
          98   656.908630       884.592957       77.4070511      -1067.36096      -1129.26990      -672.674805      -10.5159407      -16.0213108      -147.131317       250425.125       11412.0000       500.089142    
          99   1157.88477       371.492615       77.2516251      -827.384094      -1064.92944      -739.602722       63.1345901      -7.46204662       73.0652695       250883.703       11640.0000       336.342072    
         100   390.851440       119.634247       76.7227173      -927.723450      -864.435547      -549.767822      -9.62905502      -74.7580338       45.1635284       384566.281       17654.0000       382.229614    
         101   519.011292       600.323669       76.8696823      -908.945862      -1182.22144      -792.350403       48.1359444      -12.8867636      -76.4941559       315095.125       14636.0000       380.972717    
         102   220.609070       255.150314       76.0156021      -838.827087      -842.428284      -653.807068     -0.871102512      -31.4167442       74.4992065       443698.750       20794.0000       233.506699    
         103   463.316895       474.603516       76.7993088      -1046.04785      -927.323425      -342.316376      -24.9596119      -57.7924309       42.8570786       388543.312       18167.0000       665.719482    
         104   1058.11035       933.531311       77.1458664      -587.174988      -886.737427      -523.400452       61.1655235       18.4350300      -79.8228149       330189.406       15971.0000       379.825714    
         105   1117.38684       143.785889       77.8891373      -1286.13855      -1215.80444      -630.183411       14.4087152      -47.4230042       13.0166998       372323.438       16345.0000       630.052368    
         106   1634.23804       832.244080       76.2534943      -801.051697      -698.455444      -628.266235       18.2315464      -13.4710550       83.8385696       252263.297       12012.0000       212.795578    
         107   924.295044       733.814270       77.4620514      -644.499329      -848.588562      -475.104095      -40.9280090      -37.7639198      -60.7920761       390170.906       19305.0000       353.990936    
         108   924.575806       99.7538910       75.4066010      -935.169739      -1151.33887      -537.213684      -62.1306000      -18.1498108     -0.135499969       380563.719       17347.0000       551.083374    
         109   1196.40747       523.271179       75.7246933      -755.581604      -785.369629      -866.263855      -44.0540009      -17.7646065       64.6935959       433256.750       20770.0000       170.779602    
         110   1349.64734       266.289307       76.7235565      -1125.58691      -1044.56177      -486.433777      -4.92984581       8.42120457       73.6103210       321804.531       15089.0000       616.307861    
         111   242.896332       1094.71545       74.5609741      -957.056702      -1163.66235      -433.842163       23.6975555       24.3179035       70.8405228       400535.156       17912.0000       665.621826    
         112   1632.97314       934.687927       78.4239120      -686.557739      -632.992249      -360.596497       51.9767227       12.5264874       3.42614627       350945.750       17564.0000       316.655029    
         113   1328.60754       113.129883       75.9094543      -755.821777      -672.788818      -269.315521      -46.9536896       13.8786974       71.4445724       438269.719       21597.0000       475.070038    
         114   1458.78662       191.462738       76.2478638      -813.531067      -941.255493      -495.286713      -12.2483835      -58.1277847       39.0411415       231348.516       11102.0000       416.413025    
         115   270.644592       567.157654       78.9880142      -727.311951      -651.792664      -538.720337      -64.8384247      -1.12047863      -60.5161209       388784.406       19758.0000       225.011307    
         116   624.376648       1053.37012       75.4115829      -642.585632      -715.229431      -626.679565      -74.0209427      -13.5119343       66.8918457       269713.906       13326.0000       192.598480    
         117   327.185303       857.501465       76.2828827      -783.763550      -808.172485      -247.916473      -27.8243999      -49.7736092      -14.7076721       733732.625       36107.0000       557.862976    
         118   905.096924       927.774170       74.6020432      -634.341858      -626.935181      -423.237762      -45.9177933       1.97517015E-02   31.7796669       304530.125       15341.0000       228.935349    
         119   1032.64673       473.350983       76.1502686      -585.625366      -740.675903      -506.990509       15.2044735       75.7244339       10.5309000       390222.594       19394.0000       246.262619    
         120   729.157104       638.840759       77.4383926      -439.873993      -552.528748      -325.228119      -1.81047134E-02   11.9163847      -48.5574608       476532.719       24041.0000       215.057327    
         121   555.554016       742.354736       74.5636444      -702.384216      -765.001892      -390.782990      -30.5964832       20.5470161      -49.2585220       517824.094       25112.0000       363.155914    
         122   577.612366       954.987122       74.7309113      -766.906677      -777.504089      -300.522675       32.1874771       1.76940405       103.315910       290005.125       14597.0000       507.650330    
 #=======================STRUCTURE TYPE->           1 =======================
 #GRAIN NUMBER| COORDINATES: X Y Z | STRESS XX YY ZZ ZY XZ XY | GRAIN VOLUME | NUMBER OF ATOMS | VON-MISES STRESS |
 #AVERAGE VON MISES STRESS FOR THIS STRUCTURE TYPE IS   40.2406120    
           1   444.394531       1047.86780       76.4440536       156.253387       21.7317982       54.7895432       39.3268509       11.7618914      -14.3305359       2996980.25       172156.000       142.873428    
           2   396.853821       984.867432       76.2669601       157.720734       177.121414       150.931519      -11.5746279      -18.7491741       8.40683746       2167081.25       124567.000       47.1458435    
           3   890.213257       636.670715       76.4876785       88.2564468      -78.8534317       77.4993057       14.2022524       16.2291317      -72.2770615       2969429.75       170498.000       208.112930    
           4   1391.74634       613.161926       76.5791168       145.223724       100.385513       72.5476379      -14.7146425       1.88163126      -14.4415903       2416715.50       138853.000       72.9347382    
           5   495.001038       255.793228       76.9411316       18.8257179      -8.13980961       100.151909       4.90284204      -40.8811874      -8.36947632       1441563.12       82746.0000       121.779160    
           6   119.882576       836.268433       75.8656845       51.1814423       52.0372086       52.7707901       19.0258369       12.3438768       37.0312080       3657209.25       210045.000       75.2256012    
           7   761.791748       145.538757       76.0062637       177.238251       148.399994       103.623787       9.60990906       22.0522709       16.0415535       2614283.75       150252.000       81.4602661    
           8   1612.95190       308.136230       76.6985550       164.550827       163.496948       88.9407272      0.631782293      -6.75714540      0.369387567       2806550.00       161288.000       76.0059052    
           9   740.529236       302.911926       76.2884521       65.3052444       86.3062744       104.167488       5.55881786      -7.84087992      -32.1912498       1846820.38       106075.000       67.2394180    
          10   1153.03625       716.435913       76.2839890       182.752487       150.327255       109.567368      -7.40163183      -17.6585617      -29.8729153       1267776.12       72856.0000       88.3822021    
          11   1112.21948       265.885559       76.2606583       199.321655       110.301811       105.942986       14.9647493       7.32820940       16.0468597       1944595.62       111743.000       99.6844940    
          12   531.792786       360.427521       77.0313339       61.2713203       4.10375261       45.8262978      -34.7839127       21.9174366      -40.2214699       1687086.00       96854.0000       112.017448    
          13   540.250305       188.025665       75.8035736       110.847488      -34.6901283       42.8223877       4.19009686      -42.5813255       91.3211975       1303294.88       74811.0000       215.451294    
          14   307.031067       525.283875       75.8265915       94.8570328       105.756866       102.265533       16.8540726     -0.358211160       13.4117861       1786816.00       102638.000       38.5374260    
          15   1723.99231       289.472168       75.7709427       92.9697723       40.1495361       20.8997173       34.3715973      -15.8049622       12.6688442       2204926.75       126612.000       94.6172409    
          16   411.900330       309.159790       76.0866776       50.1863327       125.616196       76.6528397      -34.8628769       19.3806782      -68.6573792       1861353.00       106898.000       152.670807    
          17   1290.15540       942.862854       75.9982376       210.208725       142.346130       63.8399544       2.22705221       2.93731833       44.6004028       2531901.00       145512.000       148.675934    
          18   392.507324       729.919861       76.1982117       138.337311       121.934677       101.791771       25.3890533      -17.4065247      -8.72252083       2316924.50       133148.000       63.8451271    
          19   1298.47754       612.273804       75.9064560       80.2285690       161.934113       35.3179779      -18.8323269      -11.0549164      -16.6684704       2500864.25       143664.000       120.939316    
          20   1144.68848       1111.52527       76.0167465       129.766830       94.9415817       86.0551376       2.05374932      -24.0506725       5.36638308       1836636.50       105527.000       58.6139221    
          21   462.905762       911.761780       76.3739777       92.8776932       99.0118103       50.0918922       29.2805557       11.9127769      -23.7891521       2284248.00       131188.000       82.6212616    
          22   1568.27051       1076.12085       76.9131775       138.666000       54.5492744       59.4670982      -34.8449135       8.13338280      -4.89088392       2621318.50       150581.000       102.950760    
          23   82.9796982       591.554260       75.9826508       170.407684       60.6761055       17.5869770       4.53175306       39.8813896       14.2782078       1860172.62       106853.000       155.147415    
          24   1280.28442       454.867737       75.8097229       146.591064       124.047943       46.1269035      -23.2293835      -25.7236805       22.1282501       4467340.50       256731.000       115.798866    
          25   1596.19702       587.191711       76.3883972       111.145767       66.3820877       66.1236649      -4.61736584       20.4612694       3.10341907       4163280.00       239183.000       58.0022926    
          26   1420.72876       515.386536       76.4938278       116.742744       130.140411       132.352234      -24.9923878      -7.75939941      -13.1845274       2272803.25       130605.000       52.8204613    
          27   85.0952225       95.9852753       76.0539856       141.818573       186.122818       153.988571       8.06834126      -19.2296963       48.7703819       2145135.00       123286.000       100.060379    
          28   218.814636       333.191925       76.3884811      -2.64896941       122.835136       69.0826492       41.5698357       27.7477722       58.5722694       1475917.25       84771.0000       172.268997    
          29   1667.51355       836.801086       76.1575165       75.5249557       89.0555878       84.2346573      -1.09672940      -58.5766106       42.2036171       1893503.12       108781.000       125.625595    
          30   1470.53906       708.683289       76.7889175       125.696793       116.046043       133.667007      -13.7278795       6.81245422      -47.4524040       1700237.38       97682.0000       87.7118225    
          31   1180.48767       987.443176       76.2582016       87.9729919       72.3760681       76.8941574       19.4985332       23.9205265      -20.9816952       2326442.75       133639.000       66.1139679    
          32   1680.50806       1041.06750       76.4157104       123.030380       32.0021172       83.9743576       20.1172028       9.33987808      -19.6632442       1396959.25       80235.0000       94.2976685    
          33   1484.07153       88.4556046       76.5547256       26.0546207       45.1625366       114.854446       19.3456764      -18.6146965       16.6602631       1777801.88       102077.000       97.7175598    
          34   606.165161       96.2671280       76.4180679       238.577438       92.8463974       180.582108      -9.19194794       81.5425186       96.1768188       1033975.50       59430.0000       253.180252    
          35   942.340271       1037.60449       76.3850174       151.242462       39.6172943       121.966446       32.4393959       22.7736950       72.4676514       1875577.38       107743.000       174.690781    
          36   876.429199       181.581238       76.2273254       36.7565079       92.4934921       116.576576       14.0616484      -12.1089611      -6.16296530       1925864.38       110615.000       78.5871582    
          37   635.616760       262.988831       76.0344086       59.3421249       90.2019653       44.0504837       24.3033409       30.9613743      -40.0789757       1910001.88       109696.000       105.474220    
          38   1375.96057       407.115387       76.1602020       150.396118       102.205421       116.987305      -7.87266493      -13.7367821      -14.2755461       2224085.50       127792.000       56.4969521    
          39   1242.67480       504.308838       76.3824387       176.794647       158.714340       76.9276810       25.9223080       21.8986225       23.7135506       3604343.00       207158.000       116.774261    
          40   1004.52240       1116.41211       76.7486343       195.026917       243.637482       141.455429      0.394135505      -46.0936546       8.28584385       1555789.62       89432.0000       120.072220    
          41   1676.67688       152.397522       76.4203796       81.9320526       47.9234886       99.2156296      -47.2417870       31.1964722      -57.2521095       2101671.25       120705.000       146.599869    
          42   1552.68384       442.327393       76.2595749       188.817596       69.1681442       93.3046112       53.7378006      -19.3130531      -15.1212368       3152807.50       181175.000       149.929443    
          43   233.527328       444.377960       75.8776245       238.931961       150.096786       105.271568       26.5601826      -56.6954079       9.81758881       1635292.50       94007.0000       161.033035    
          44   856.929016       721.987305       76.6484146       97.9164734       36.7854080       66.7015152      -11.2548952      -13.9471607      -45.6273918       3563667.75       204718.000       100.061684    
          45   686.046143       599.424927       76.1618423       122.775215       148.805405       150.070663      -24.2340317       9.95227623       74.4355164       2373445.00       136399.000       139.258942    
          46   1574.09631       148.504578       76.4316101       54.9844208       91.1325912       160.087433       22.0116081      -14.0309591       18.5221119       1808783.38       103893.000       107.830399    
          47   822.123596       1011.98676       76.1278152       95.3007584       113.079193       64.0632706      -29.2701321      -17.0704613       82.1036453       2170607.00       124672.000       159.733078    
          48   947.188171       463.780579       75.9950714       123.280197      -22.6433773       85.0717468      -36.8880692      -23.7426758       12.4616613       2753204.75       158119.000       153.027039    
          49   1443.80127       769.648804       76.4683609       158.299225       107.289856       90.1316147      -6.95780277      -10.5467844      -13.6784372       2722849.00       156460.000       69.3673401    
          50   1085.12537       455.403809       76.7008743       205.538101       47.4629631       110.153679       12.1898289       20.2901039       23.4311924       1578878.88       90696.0000       149.452118    
          51   653.689392       930.113892       75.8601074       164.793930       192.746307       123.880333      -22.6118031       22.2021561       20.1265564       1452933.75       83482.0000       88.4692764    
          52   143.158783       224.597015       76.1072998       125.192490       139.949112       120.685638       23.8772964      -42.7270889      -27.4417648       2448859.75       140725.000       98.7467194    
          53   774.880676       812.800903       76.9540558       193.908340       113.591919       62.2993011       16.4912510      -19.7256260       75.5380936       3427105.00       196992.000       179.728958    
          54   634.729675       409.310059       76.3772278       17.0256786       69.6711807       54.7858734      -12.9884329      -45.7497749      -21.9882545       2376057.25       136414.000       102.201515    
          55   1717.47607       1127.99329       76.6875610       185.370300       154.924744       105.592003      -6.89482117       31.0637569       4.50593090       1901988.12       109343.000       89.2244949    
          56   739.167236       1097.55920       75.9720917       64.8733444      -193.967361       29.1657562       31.4963284       31.7274494      -20.4472446       2029662.88       116460.000       257.451324    
          57   525.175720       102.092491       76.3392258       124.885414      -60.1791763       98.1570206      -39.3192978       1.75841260      -20.3856068       1236884.62       71003.0000       189.501572    
          58   890.639282       832.637634       77.1814423       116.888733       97.0095291       112.970001       3.76120591      -44.7316628       16.1514091       1272870.12       73110.0000       84.6194229    
          59   1606.07751       520.685059       76.6173553       150.508835       2.26514006       103.602341      -13.7717676      -34.9517403      -23.8916664       2385022.25       137010.000       152.214035    
          60   1425.48218       856.883972       76.7610474       212.374512       181.019501       94.9728241       60.9088402      -24.0333767      -29.2286663       2296213.75       132011.000       162.820694    
          61   1301.79871       825.056580       76.5123672       47.8008347       6.12791395       49.5145569      -79.4267807       40.1814156      -44.8366661       1741871.38       99993.0000       177.796066    
          62   1421.39685       1029.76160       76.6921997       116.751541       120.653625       60.8690109       23.0841427       4.30525589      -19.4377289       3288528.75       188955.000       78.3827591    
          63   652.071594       137.138092       75.8928528       116.689186       76.6462784       106.512253       17.4957199      -27.8767929      -89.6753998       1607452.50       92333.0000       169.334488    
          64   407.984528       297.118439       76.9828568       77.3316193       194.525864       89.6460495       12.1861486       20.6457081       25.7948208       1907177.25       109567.000       127.135033    
          65   701.431152       972.748779       75.7952347       45.2191696       68.9073181       45.8632202       17.5875168      -23.0135002      -88.8798523       1905814.50       109454.000       163.590942    
          66   141.681824       511.697052       75.9762955       162.631699       9.76815796       35.6461906       12.3600874      -19.4965115       41.3477097       2022132.00       116138.000       163.733566    
          67   1486.65894       327.258972       76.1874619       110.499153       71.3468781       95.7132797      -39.3545494     -0.493489027      -70.9239502       1635970.25       93967.0000       144.604004    
          68   117.179680       381.643555       76.1057816       76.7067947       86.6249695       59.6727371      -39.4888649       9.90465164      -74.1600189       1940977.25       111465.000       148.421768    
          69   146.824600       990.645569       75.7856827       106.298080       48.1222153       56.6932831       12.3816013      -10.8191566       24.1312733       3816572.00       219240.000       74.2784958    
          70   289.798157       230.539658       76.3881378       86.3807831       127.697876       97.1997757      -1.14509237       26.5798454      -13.3207064       2669760.00       153381.000       63.5048447    
          71   1526.03235       917.861694       77.2477112       103.577744       81.0917435       25.8334274      -21.4453907      -6.26744032      -20.2365704       2268582.50       130300.000       86.7626266    
          72   1070.62512       1028.61133       76.4054871       79.9375534       47.2710915       67.8496780      -69.7985535       10.5694981      -32.1473083       1327107.38       76184.0000       137.365753    
          73   165.992554       965.446167       76.5094376       154.747345       124.332558       74.6506119       17.9739265      -28.7699623       15.9734707       2801775.75       161003.000       95.5101776    
          74   1034.48083       358.585663       76.3189621       79.8223801       32.8944473       79.5223541      -8.61215687      -32.6971626      -33.6749916       1604000.50       92106.0000       94.9740906    
          75   1554.79077       757.859802       76.6205063       242.942703       180.549454       125.073494       18.4610100      -33.1663132       16.1039867       1918299.38       110296.000       124.628571    
          76   1581.78674       109.753906       76.2178192       151.009674       62.2691841       131.371796       6.07503653      -21.7741184       3.00919843       2166903.50       124486.000       89.8780670    
          77   1059.83789       559.560669       76.5213242       61.1899338      -73.1094208       88.5180893       28.4436531      -21.3184967       5.36017704       2277986.75       130775.000       162.265366    
          78   1253.43689       297.229706       76.5182877       119.624901       163.392975       93.3543472      -17.4318066     -0.814088881       15.0937347       3102512.50       178295.000       73.1618195    
          79   215.804535       690.507812       76.4879913       184.725769       103.430321       71.0515976       20.9001675      -11.6842670       40.6468430       3969614.75       228141.000       130.253937    
          80   609.072937       1073.44409       76.3089066       199.018372       208.160141       67.1106186      -14.7392282       41.7885933      -23.1777649       2342029.50       134641.000       161.837326    
          81   832.570862       516.483154       76.7392578       58.8083534      -8.35862160       76.8582001     -0.522144675      -9.59013557      -43.0500336       2097290.75       120434.000       109.023849    
          82   1152.16443       617.714417       76.8493805       34.0125771       55.6923943       48.6454239      -35.2663765      -39.4131699      -26.5615559       1838836.75       105563.000       104.282272    
          83   1730.09814       958.318909       76.3033905       124.304649       110.304184       118.990105      -19.3527126       46.3458595       48.2343750       1145018.38       65773.0000       121.230835    
          84   851.502380       241.330139       76.3635178       76.9522552      -102.207664       91.3687134      -6.38673544       7.33303022       20.2149925       2124086.25       121948.000       190.784149    
          85   1159.62866       832.185852       76.1669235       185.437515       160.710510       39.3536873       25.6436024      -9.77870560      -17.2950172       2481607.25       142621.000       146.617538    
          86   1297.59326       1110.23633       76.2893066       118.101967       91.9121094       94.9828796      -5.89759254      -30.3593216      -58.7691841       3086791.00       177343.000       117.668068    
          87   423.139587       636.757019       76.3504105       172.647202       100.296661       59.1198654      -22.7760334       1.95843971       8.71348095       5274479.50       303122.000       108.188797    
          88   808.551758       394.835144       76.1532745       138.543732       81.6457214       113.522430     -0.717947721     -0.244700968      -46.8770943       2617602.00       150404.000       95.0468216    
          89   643.217346       541.296692       76.5528336       141.378693       102.843773       49.1418724       2.92764330       23.5381241      -50.0996132       3783202.50       217352.000       125.123894    
          90   961.779541       277.524658       76.2057648       28.9002705       110.783806       120.623108       28.7841244      -4.96922493      -33.5505295       2649470.00       152174.000       116.378578    
          91   332.620087       376.173370       76.4753265       40.1774826       70.8492966       62.3027496       27.8612499      -23.2438297      -21.1558571       1707830.38       98063.0000       77.7428513    
          92   355.428894       492.544281       76.5542221       161.494614       85.1668167       89.1023712      -4.06562996       22.7317162       103.264984       1704544.75       97921.0000       197.817551    
          93   1260.73462       691.791748       75.7901993       70.9447556       115.454872       58.4330444       7.28958654      -66.8411942      -32.3206100       2343074.50       134605.000       139.251953    
          94   1693.34485       709.850769       76.6315002       155.021591       43.2997475       58.8284569      -25.6440449       8.19578838      -20.1457672       2477567.75       142322.000       119.916367    
          95   1009.12256       833.569092       77.0575790       114.341873      -106.208084       62.6092415      -1.45012820       1.27996111      -3.02374506       1790333.50       102784.000       199.868896    
          96   1364.35425       732.226074       75.4209900       85.7159500       133.969788       37.6124077      -24.2975807       30.5391178       10.4123020       1524010.88       87539.0000       108.893715    
          97   1039.66577       708.916260       77.0576859       72.3135757      -4.50077915       62.1645355      -9.83037376      -9.23039436       37.0454140       2294665.75       131760.000       99.4306412    
          98   664.300964       863.168335       76.4535141       98.6926804       38.1361275       103.989357      -12.0769615       10.3967609       25.1184921       1956429.88       112380.000       81.6734467    
          99   1162.76831       378.365387       76.3856964      -64.8565292       21.1475811       69.5339432      -17.0650387       17.5250683       75.0936584       1783081.12       102326.000       180.586761    
         100   395.337677       121.490417       76.5680542       201.654083       155.475143       85.7181396      -38.8131409       11.0674381      -21.1964283       3173683.00       182439.000       128.275284    
         101   517.515503       746.421753       76.3906479       99.3246155      -7.97796583       101.377144      -10.7477884      -8.64781952      -51.1075478       2247495.00       129064.000       141.933578    
         102   212.079147       151.675781       76.2471237       107.664246       124.482750       100.129814       7.17138052       10.9260082      0.662097394       3128005.00       179731.000       31.3062572    
         103   478.083374       464.587830       77.2247925       109.026123       38.7119484       34.3464928      -3.56165075      -3.70613170       28.5315456       2942994.00       169039.000       88.2694931    
         104   1051.39771       928.003662       76.8498840       192.788605       89.8314896       88.7655334       30.6388340      -36.0140572      -56.8377304       1854073.38       106522.000       164.650803    
         105   1117.28979       149.498062       76.3927689       150.243164       144.874680       112.195145       13.8767958      -7.76698780       15.2798376       3747572.75       215422.000       52.2619095    
         106   1629.09692       821.650635       76.7767868       158.176407       91.1921310       74.4383316      -11.9710817       43.0481567       50.2345085       1552072.62       89175.0000       139.462158    
         107   920.180176       739.795715       76.2565842       195.979279       32.1166649       85.3589478       17.0529099       27.8569374      -6.94396067       1724961.50       99099.0000       155.904984    
         108   926.289307       123.626022       76.4599915       174.378235      -15.7775183       47.8149261      -32.0914154       8.30175686       36.8660736       3242285.75       186253.000       188.373016    
         109   1193.32898       422.684265       76.4451675       210.139023       187.785690       98.5506210      -25.3635426       6.83401537       9.47208595       2560788.75       147207.000       113.121483    
         110   1366.44470       268.404968       76.4525299       165.947525       95.9262085       81.4438095       14.7026205      -18.9513588       83.5813446       2307234.75       132576.000       169.735931    
         111   249.073181       1085.98584       75.9587784       173.436050       158.448700       62.7495270      -9.80104828      -33.3162155      -35.9413872       3864019.25       222121.000       135.316925    
         112   1634.81812       936.391052       75.9265594       21.5236130      -35.6599922       43.2324409       33.6459808      -6.50884485      -41.3390999       1578067.38       90416.0000       116.758904    
         113   1317.37793       105.832748       76.4088974       1.25632477       62.5728378       44.1056671       4.24683285      -3.04843616      -12.2663641       3946048.25       224820.000       59.1758842    
         114   1468.54871       208.350433       76.6350861       49.4668045      -53.1985207       45.9760475      -16.4619579       8.82853985       14.6506634       2160149.00       123127.000       109.017059    
         115   272.055817       568.804871       75.9164200       84.0670776       121.392136       73.4536667      -44.5005035       21.7694149       46.2844200       1761932.38       100596.000       125.264923    
         116   865.336853       1053.03162       76.2106323       58.4205132       119.035149       65.1886063      -24.0035629      -8.34230518      -17.6535702       1901358.25       108490.000       78.6252899    
         117   331.342194       858.593933       76.3370132       36.1907310       54.0260391       5.39564228       1.11669767       40.4776001      -67.1027756       6191861.00       353198.000       142.278152    
         118   905.303955       929.229065       76.8507080       108.495758      -30.2260952       10.1076784      -38.7868462       11.7630386       50.2711220       1723781.25       98273.0000       166.689270    
         119   1035.83240       434.176666       76.6029587      -5.01361942      -13.5295801       37.1186676       28.9476757       42.1343422      -2.99437642       2559793.00       145971.000       100.365128    
         120   738.921448       632.701050       76.3180542       30.4723072       11.8235397       35.0984764       14.6672297       14.8963614       3.72954011       3191786.75       181927.000       42.5237122    
         121   572.464966       750.437256       76.6018829       225.901749       114.019592       81.2253723      -7.00243330      -41.5380211       11.1838770       5496614.50       313578.000       151.527969    
         122   564.475098       944.823059       76.8459778      -16.8276882       20.4068012       80.9349136      0.562668622      -63.7329330       30.0368881       1965402.62       111964.000       148.986740    
 #=======================STRUCTURE TYPE->           2 =======================
 #GRAIN NUMBER| COORDINATES: X Y Z | STRESS XX YY ZZ ZY XZ XY | GRAIN VOLUME | NUMBER OF ATOMS | VON-MISES STRESS |
 #AVERAGE VON MISES STRESS FOR THIS STRUCTURE TYPE IS   1048.15405    
           1   441.114105       1069.32349       68.9295578       4157.30127       4626.74902       307.444519      -163.571304      -602.083557      -1055.27026       3215.11816       185.000000       4621.43408    
           2   393.009857       888.370544       84.9068222       3701.26367       2832.87939      -304.872559       585.334656      -264.951660      -884.208801       4047.92188       232.000000       4111.96729    
           3   849.182007       676.206604       83.1729507       3868.40894       1800.15466       140.486801       682.242615       264.350372       374.481781       3428.09912       196.000000       3534.33252    
           4   1393.68701       629.143494       57.3501892       2451.67334       1857.72400       385.636749       401.608459      -112.729530      -542.830811       4385.59424       251.000000       2190.92456    
           5   502.182617       248.055618       82.0088120       2638.20288       3177.80640       1095.95398       626.094299      -689.318542      -650.819092       2401.16846       138.000000       2715.52319    
           6   104.293571       840.468933       76.4259109       1481.96472       1231.50977       52.1051064       137.214798       556.777283      -8.33852291       12450.0439       712.000000       1654.02722    
           7   764.366638       130.636368       74.8622589       1790.28589       2189.99414       610.866394      -280.650696       63.9989891      -84.6261368       2890.04346       165.000000       1514.03027    
           8   1657.49097       354.037750       73.2853241       2582.64453       1849.90100       1315.86829      -60.7432518      -715.763916      -249.267776       12499.6602       717.000000       1716.92737    
           9   756.115967       303.256165       86.2784805       2037.82812       4171.36230       62.3206940       440.028900       210.177246       375.556335       736.937378       42.0000000       3715.63403    
          10   1135.14270       695.480286       72.7409668       1544.96753       2161.88501       362.005066      -431.257355       1021.52576       97.2895889       804.382385       46.0000000       2495.32886    
          11   1084.45789       242.463135       81.8220367       4989.67139       4659.58398       814.658936       452.790741       426.840729      -882.259705       1719.61890       99.0000000       4433.77441    
          12   526.779541       370.509491       77.3895035       1972.73828       2482.84106      -144.175964       367.780914      -191.322754      -426.941406       3238.01465       185.000000       2623.70215    
          13   504.844177       180.373383       71.8296204       2397.69287       1108.51062       953.944824      -541.573914      -743.625732      -487.216827       3951.93945       225.000000       2266.30322    
          14   322.383240       817.788208       77.5532837       3323.24976       3254.08374       253.804123       245.527191       483.262360       192.911636       4573.12891       262.000000       3194.85547    
          15   1740.46033       346.410156       89.7565079       1969.31519       945.919189      -170.123077      -539.114929       171.136810       324.983582       2738.04224       156.000000       2170.64136    
          16   1056.42578       343.509125       72.6952362       2468.79224       2078.90479       1250.89917      -653.409729       697.010193      -42.7531319       4831.43701       277.000000       1975.91003    
          17   1326.00574       948.766907       78.9523392       2290.00659       2059.78125       2145.21387       208.506424       441.318878       335.477539       12607.2480       725.000000       1045.45728    
          18   764.740479       729.936096       72.4332809       2153.57349       2553.15063      -15.4182825      -717.856445       6.99512672      -120.445877       3534.88403       202.000000       2705.64014    
          19   766.521240       660.332581       83.6294479       1544.91174       2781.28418       788.941956      -580.105286       815.469666       67.9975281       1871.57520       107.000000       2460.32056    
          20   1152.31104       1099.16553       72.9899139       832.377502       1417.37976      -31.7449818      -125.020798      -626.912170      -609.673584       3512.49683       200.000000       1983.80994    
          21   509.449341       902.543457       83.0567780       2438.73413       1522.41150      -84.4505920       6.56880474      -882.145081       124.226173       3568.02930       204.000000       2697.22510    
          22   1570.11719       1088.48596       64.3903961       1441.68860       1979.19788       1008.56616      -422.636810       329.257812      -42.1874237       5125.68164       294.000000       1255.29114    
          23   63.4797859       532.334351       29.5098152       846.178528      -1270.73547      -317.366425      -669.968750      -1100.33057      -704.957642       526.379456       30.0000000       3137.14673    
          24   1160.66699       445.239502       75.4838333       1362.10278       1889.44043       345.030701       253.367035       278.998444      -16.4895458       6791.99707       388.000000       1508.56946    
          25   1519.86609       625.838318       74.4819946       1344.24512       1997.01123       314.768585       302.867218      -13.3987360      -122.629608       3194.86230       183.000000       1574.41138    
          26   1460.46545       487.020020       71.4676056       3294.77954       4453.11914      -70.6202164      -652.003906      -1199.57800      -2215.21021       1700.61499       98.0000000       6072.86572    
          27   67.1801987       124.353920       83.2401962       2418.47046       1890.30945      -242.001389      -1034.33875       290.872559      -879.418030       6530.22559       373.000000       3425.70068    
          28   200.208008       317.940369       66.3218079       1754.12195       1607.87671       723.468506      -438.617371       1167.63489       121.273315       3077.63086       176.000000       2375.77295    
          29   1728.55920       884.676941       60.5487862       794.244812       2530.00903      -810.314514      -154.624649       998.389587       52.8876762       1247.54419       71.0000000       3382.76343    
          30   1432.69690       730.966309       73.0094604       684.602234       1404.40149       1138.37390      -77.3509521       128.238083       410.126892       11089.5020       634.000000       984.526245    
          31   1195.81128       1043.96472       72.7657013       1902.44153       1937.25952      -228.222824      -238.238388      -124.407562      -342.944427       2785.37134       159.000000       2276.98608    
          32   1657.52710       1000.99408       70.2701340       1007.92792       3220.57397      -567.260132       84.3470154       507.491760      -389.685425       260.284027       15.0000000       3480.21606    
          33   1505.88306       46.7702408       87.2905807       1187.68359       2746.37378      -973.862305      -909.701538       422.652435       782.278687       1368.88330       78.0000000       3914.77100    
          34   582.113159       68.6485138       74.9625015       852.454529       811.370789       2044.69495       283.490173       154.376968       110.328522       3799.08130       217.000000       1349.52625    
          35   920.895813       1068.96692       82.3455582       2061.18799       2715.11206       13.1437950      -162.130768       1040.95032       29.7214622       3138.70898       180.000000       3048.54199    
          36   728.900391       178.613220       49.0491562       1814.46741       2445.44824       502.395813      -22.3002911       548.152405       80.0302200       3209.41040       184.000000       1967.15027    
          37   684.090759       282.798065       77.5415497       2034.95862       1302.31104       2415.30981       414.825867       560.261475      -618.448181       6700.54785       385.000000       1888.24194    
          38   1365.58118       388.597260       84.5424271       4473.19141       3640.64600       418.602997       511.825897      -57.9514656       590.801392       2211.96606       127.000000       3949.72168    
          39   1224.00244       553.572083       78.4462738       2086.55200       2117.81201       433.971039      -96.0992584      -54.1956596      -191.938019       6836.46387       392.000000       1711.92810    
          40   1064.30225       1114.53564       74.7614670       3085.89941       2027.62354       2146.32007      -401.159607      -959.113708       196.633240       4374.86084       252.000000       2089.71338    
          41   1692.46606       148.755600       63.8183365       2651.05176       2067.89697       189.874954      -398.341461      -21.6703491      -708.235046       5713.09033       328.000000       2635.23071    
          42   1525.55103       405.998352       72.7512665       2781.58740       4766.62744       26.2173042      -276.715332       1020.01001       654.153809       3381.67041       194.000000       4651.52637    
          43   216.904465       454.296783       76.6279068       1269.48865       1312.75085       1549.71790      -294.264954      -126.327133       20.5870094       3938.27222       225.000000       614.165588    
          44   823.814636       1019.73035       77.6252365       2954.56738       1400.13354       1257.26746       347.540649       791.278870       290.442871       8120.27344       467.000000       2269.92114    
          45   715.077637       235.012436       87.6876144       3303.74561       2662.08765      -1154.17529     -0.580254495       467.331360       1068.59253       880.701599       50.0000000       4637.36914    
          46   1590.72107       182.711563       76.1817245       2317.71558       2617.81177      -196.384460       248.807220      -97.3399582       92.2839127       4764.51416       273.000000       2721.19800    
          47   832.780151       966.973511       87.1312027       2512.90723       1183.27551       1207.53674      -91.5992355       990.125305       50.9651909       4668.14844       266.000000       2170.31299    
          48   968.837891       467.551514       78.3959274       1840.80005       2735.70215       1180.01038       168.017899       406.402222      -256.900513       2700.35034       155.000000       1614.62292    
          49   1483.11304       711.283875       75.6439362       5437.45947       3229.68262       936.335938       911.071899       756.773132       570.538635       2236.07349       129.000000       4514.61328    
          50   1051.46765       463.405396       73.2767563       2106.21021       2283.55713       1382.45239       49.5031891       582.390015      0.861999571       5140.65186       295.000000       1307.10437    
          51   164.062057       968.656372       74.4552994       2048.14087       1331.60962       248.005890       276.308319      -271.889923       266.296539       262.097229       15.0000000       1768.50293    
          52   154.557709       221.652832       80.8762283       2192.70728       4073.70654       855.705017       620.492249       963.420532      -1134.26575       1812.69788       104.000000       3954.72852    
          53   771.693176       801.702454       83.6758041       3032.76001       1122.02527      -92.2759705      -817.371094       42.4782372      -270.187408       2352.14941       134.000000       3110.36108    
          54   628.384583       435.162354       83.0525894       2449.46216       1882.00916       915.559875       267.736267      -788.404968       7.50796270       3943.33081       226.000000       1970.88965    
          55   1719.55127       1100.29565       94.2166977       875.916138       4642.81445      -88.6697388       89.9205475      -1050.07556      -439.158295       400.108398       23.0000000       4760.69971    
          56   731.993042       1096.59119       69.7928467      -614.537109      -591.591736       367.559967       169.125320      -170.872360      -278.729736       15212.9531       862.000000       1161.45581    
          57   490.737122       101.614014       76.1651077       3737.01221       1433.38330      -20.4633636      -967.302856       211.130005       111.941643       2343.53052       134.000000       3707.80859    
          58   857.305298       820.643677       76.3111954       5511.16113       2569.85352       152.917419      -1416.73669      -556.752930       1003.93219       2227.79443       128.000000       5619.32520    
          59   1557.81470       216.960632       57.8274994       1217.93005       1769.55627      -308.057434      -667.130066      -783.570740      -365.638214       2688.55249       153.000000       2655.73242    
          60   1410.76917       815.026550       84.5216446       1210.74902       1445.93457       1097.51575      -97.2135468      -99.1180801       123.311874       3589.87158       205.000000       445.204346    
          61   1278.12842       840.291748       61.4169235       2131.26343       2565.92261       433.502289      -595.326782      -426.704071       761.028381       2674.46631       153.000000       2675.11353    
          62   1383.58118       988.343262       74.6771851       1906.90906       1104.19958       2252.08228      -28.9734535       204.277740       193.999298       2150.36499       123.000000       1131.88977    
          63   688.040466       146.059799       88.4117279       3717.57495       1839.77979      -168.111267       560.657959      -831.803162       1022.17688       2028.95605       116.000000       4181.07520    
          64   402.568634       329.159210       69.5074997       981.143494       1995.37988       1984.52307       174.846527       576.525452       101.387711       4432.71191       254.000000       1462.01196    
          65   695.168457       1019.84851       66.5247192       346.931427      -550.531616      -186.453842       26.3248253      -172.105286       8.40420532       3079.33081       175.000000       838.091736    
          66   124.275833       517.023926       87.8779602       628.798218       930.987915       200.099258       339.243195       191.144211       287.713257       8603.59961       491.000000       1052.54590    
          67   1523.35681       352.736816       85.8502197       1792.28174       1481.75208       145.957504      -253.925674       781.994263       986.957153       1840.97510       105.000000       2691.80469    
          68   115.945709       397.812134       67.2573471       1856.48206       2353.72144      -102.538292       751.188538      -369.924652       296.652679       4302.68213       246.000000       2725.16138    
          69   167.517853       1026.66687       76.2619934       1426.13757       1215.03235       532.307678       21.7347603       556.684631       218.029510       11065.1250       633.000000       1314.73438    
          70   332.139862       229.279037       83.6246796       2186.49365       895.368042       962.108398       651.081543       833.660461      -885.175964       2797.24194       159.000000       2700.47949    
          71   1546.87842       941.354187       58.6975784       1699.26135       1100.60522       1032.84424       299.362732      -368.287537       65.0461884       3013.30225       172.000000       1044.98828    
          72   1068.82800       1051.00037       84.0640945       2078.70044       2563.89429       1040.38550       460.032776       789.878479      -428.311798       3892.76929       223.000000       2207.77319    
          73   162.739655       1040.70300       75.2290878       1192.25696       679.095276       2447.60254       136.832062      -30.5636463       458.147949       14223.4854       816.000000       1781.03711    
          74   1018.12201       326.438324       63.2212868       2468.93286       4094.90161       502.228882       273.445251      -1199.73450       259.077454       2089.44604       120.000000       3801.74536    
          75   1577.70520       751.666748       34.4939537       830.746033      -337.793365       327.959747      -282.896454      -1308.14429      -314.680817       565.925903       32.0000000       2588.75269    
          76   1372.03821       112.103935       76.0041428       2596.41455       4155.62012      -288.901642       409.284302       774.848450      -457.354248       4143.46094       237.000000       4264.52881    
          77   1101.65308       562.334229       71.0555344       3849.36377       2816.73755       184.713623       758.363464      -309.575439       915.817139       2755.63818       158.000000       3903.94458    
          78   1223.02466       359.515045       32.8449821       739.775757       931.448853       391.510925      -449.220428      -337.294067      -364.889404       3137.57568       180.000000       1253.36023    
          79   152.211563       637.296631       72.5524445       2134.98901       2076.00610       1699.50562       320.870728       581.538025      -5.40303183       10316.8203       593.000000       1221.04858    
          80   644.940613       1068.72742       46.5014458       1694.37341       754.415833       62.8446121       353.780640      -212.731064      -23.6365662       9717.93555       558.000000       1588.94946    
          81   830.620911       516.006348       76.9091492       2791.78149       4404.45508       1820.99597       143.252777      -751.837158      -1162.53564       2078.03149       120.000000       3304.61938    
          82   1152.17468       635.390381       72.5635452       1426.29358       2817.60303       880.694214      -351.409882       574.687744       217.889832       8756.07031       502.000000       2120.42700    
          83   1706.64990       982.800781       47.8253975       4388.76807       3477.62427      -1647.94678      -948.960022      -759.240479       983.327515       104.014740       6.00000000       6253.27979    
          84   873.061035       280.542999       64.9541626       3562.20630       1727.42578       3.51055360      -1497.35315       44.2378769       621.763916       1578.15430       90.0000000       4170.50977    
          85   1157.32983       851.048035       78.6999130       3011.37524       2562.51807      -407.676880       1204.53125      -907.958679       329.391541       1172.01550       67.0000000       4184.26514    
          86   1302.03064       923.357727       70.7691574       3074.14014       2504.25903      -41.4135590       740.771606       667.796997       940.728149       4770.71240       273.000000       3727.59155    
          87   404.962860       691.149414       80.9345245       2971.06470       3001.08447       1875.62671      -174.527237       345.024597       462.377808       5929.32275       342.000000       1524.35400    
          88   789.658813       412.289581       71.1517105       3480.44336       2518.41943       1323.91052       149.263306      -401.873505       1193.43872       795.114075       46.0000000       2885.43237    
          89   551.586487       587.832581       67.3682404       1792.88306       2047.52417       1834.02478      -345.017456       687.814880      -78.7656784       7714.03809       443.000000       1360.53284    
          90   964.868225       262.639648       81.1800079       3374.55029       2748.29907     -0.246642530      -678.363098      -57.8995171       646.502075       6848.58496       392.000000       3508.91089    
          91   374.966827       372.472473       70.9873810       1855.70361       1452.89990       905.161011      -85.7623520       551.060364      -709.548340       4232.23779       242.000000       1768.14722    
          92   382.695923       497.758911       70.6612625       2204.72974       3712.27686       776.388672      -325.701721       1095.82776       728.853394       2948.43066       169.000000       3461.29883    
          93   1228.78894       632.607666       81.3991928       1610.55737       39.1622658       1239.33228      -272.081207      -612.386658       225.604340       9142.63086       522.000000       1877.11963    
          94   1647.76599       686.429077       67.8180847      -11.8120909      -1140.54553      -809.874451      -1183.32678      -456.822449       57.2016678       338.786194       19.0000000       2418.01685    
          95   1040.15662       846.882202       77.0756607       1212.24695       1703.64001      -349.642151      -212.995560      -619.414551       705.657104       3530.82104       201.000000       2495.88599    
          96   1405.68347       766.462402       83.5981598       689.881226       1059.52649       1788.56445       161.212738       494.445709       371.889008       8243.91797       471.000000       1471.02759    
          97   1064.76501       749.874268       64.0152664       334.808441       273.045410       39.3715324       822.014160      -182.836792      -254.433609       3270.46802       186.000000       1547.40735    
          98   650.732910       861.529114       91.8702087       361.639099       455.378113      -502.433258       35.3158569       295.600739       404.195038       5965.69189       339.000000       1261.90625    
          99   1197.09558       368.538757       87.1229782       2104.08130       1586.52869      -390.184570       394.190948      -490.672760      -248.242935       7723.65137       442.000000       2563.51733    
         100   421.676849       169.434982       88.9943924       1969.92188       2560.55469       378.430359       102.512161      -523.522400       344.092560       5045.07373       289.000000       2242.90698    
         101   534.413452       959.626892       72.3623047       4585.35645       2607.47144      -287.907623       1357.03418       253.871643      -947.712341       2257.64648       129.000000       5141.44238    
         102   158.366974       228.620605       70.6028290       5318.24072       2781.49268       703.280396      -1010.05414      -779.044373       88.0035172       2259.52759       130.000000       4574.99219    
         103   450.719727       458.496002       73.0429382       1494.94739       1613.09326       1619.85303       60.0521469       373.887299      -187.760620       11142.0889       639.000000       742.131287    
         104   1044.13464       892.945740       62.7564812       677.457642       2463.65356      -209.531418       129.439377      -773.483276      -347.468903       2215.92065       126.000000       2787.27100    
         105   1165.85156       150.892044       68.1173019       1483.38879       1885.14893      -99.9846191       335.944885       235.004700      -25.5219231       3472.39600       199.000000       1952.13513    
         106   1570.93457       835.481934       53.8083305       705.165833       574.559631      -411.593872      -467.448608       535.072571       524.150818       4979.51904       285.000000       1859.29810    
         107   956.268799       732.231262       63.5971107       2750.74658       2312.15796       288.822388       418.480286       1402.13354       346.647156       996.751465       57.0000000       3457.95654    
         108   966.384949       124.145912       65.3487015       3118.33521       656.912781       402.010254      -1210.29517       198.258911       840.813232       2859.54736       163.000000       3658.45068    
         109   1172.00317       69.1475983       75.1328583       4514.04199       1468.25476      -117.760330       374.130219       338.215118      -510.219482       1511.20593       86.0000000       4262.27490    
         110   1365.69519       282.688538       65.3071289       2173.76440       4904.06934       1436.20874       93.3674774       1037.04871      -66.6287766       1576.07056       91.0000000       3643.92456    
         111   206.860535       1096.07825       81.2154541       1289.98657       1128.28430       1025.74084       205.133759      -30.8769474       784.491882       9867.42188       564.000000       1424.29858    
         112   1594.29163       960.228577       82.4910126       821.872864       1787.98218       1188.74548      -1.24112308      -218.843491       593.960815       8167.44775       464.000000       1384.04260    
         113   1307.27295       77.5348663       86.7380066       1135.03064       1045.57629       727.524780      -139.691574       30.8278179       425.022278       4440.02197       249.000000       860.775269    
         114   1416.95630       173.554794       106.525589       193.197586      -268.967682      -71.5856018      -45.5998611      -171.076630      -130.280045       10884.8320       612.000000       553.436218    
         115   284.230957       536.474182       92.8008347       1079.44470       98.9594269       150.605011      -246.153625       550.212891      -291.800049       1461.85828       81.0000000       1502.93054    
         116   439.210785       1018.05499       69.4376144      -55.8302956       1045.02185      -1404.73145      -476.374359      -48.1417198       375.958038       3519.03149       194.000000       2372.36914    
         117   272.412781       815.876160       68.2533569       935.853333       660.786377       959.698242      -449.299957       372.481018       26.4730759       10285.6084       581.000000       1052.01208    
         118   874.144592       950.054321       54.1782951       205.817917       843.326172       1281.35706       420.823029      -130.424957       521.672058       2189.56177       122.000000       1508.73108    
         119   1078.70947       292.871429       84.8597412       2642.15991       915.041870      -118.525940      -312.900543       350.329834       301.882812       1744.86475       94.0000000       2602.23096    
         120   749.333191       659.958130       82.8145065       1724.21826       1008.15332       969.681641       312.341248       17.8187943      -212.497894       7628.00342       420.000000       985.325806    
         121   558.221985       759.238831       85.3801956      -764.712585       1292.95312       218.555573       178.344757       504.259399      -348.294220       1525.02527       82.0000000       2097.55737    
         122   581.866272       965.272522       60.2457161       136.163544       75.3864365       171.113815       124.080582      -345.560913       8.38633633       7290.65039       405.000000       641.619507    
 #=======================STRUCTURE TYPES:FCC+HCP=======================
 #GRAIN NUMBER| COORDINATES: X Y Z | STRESS XX YY ZZ ZY XZ XY | GRAIN VOLUME | NUMBER OF ATOMS | VON-MISES STRESS |
 #AVERAGE VON MISES STRESS FOR THIS STRUCTURE TYPE IS   41.3832626    
           1   444.391022       1047.89075       76.4359818       160.541061       26.6667042       55.0602989       39.1094208       11.1040726      -15.4460449       3000195.25       172341.000       143.532745    
           2   396.846680       984.688110       76.2830124       164.327423       182.072876       150.081696      -10.4617319      -19.2082024       6.74261665       2171129.25       124799.000       48.3966522    
           3   890.166138       636.716125       76.4953537       92.6154633      -76.6866913       77.5719452       14.9725924       16.5152493      -71.7618866       2972857.75       170694.000       208.045013    
           4   1391.74988       613.190735       76.5444183       149.401642       103.568771       73.1147766      -13.9605131       1.67402411      -15.3987179       2421101.00       139104.000       75.6858521    
           5   495.012970       255.780350       76.9495697       23.1814823      -2.84189963       101.807831       5.93582153      -41.9594727      -9.43780613       1443964.25       82884.0000       120.665459    
           6   119.829918       836.282593       75.8675690       56.0356598       56.0388031       52.7685318       19.4268150       14.1909742       36.8772850       3669659.25       210757.000       76.3337555    
           7   761.794556       145.522415       76.0050049       179.019485       150.654465       104.183922       9.28938580       22.0985909       15.9303904       2617173.75       150417.000       82.2646713    
           8   1613.14905       308.339386       76.6834488       175.272644       170.974457       94.3809204      0.359645516      -9.90087986     -0.737503052       2819049.75       162005.000       80.6867981    
           9   740.535461       302.912048       76.2924042       66.0920258       87.9356918       104.150795       5.73211575      -7.75391960      -32.0286140       1847557.25       106117.000       66.7136459    
          10   1153.02490       716.422729       76.2817535       183.616257       151.602737       109.727432      -7.67039061      -16.9996338      -29.7922821       1268580.50       72902.0000       88.4601059    
          11   1112.19482       265.864838       76.2655792       203.554047       114.321213       106.569153       15.3515797       7.69885921       15.2531834       1946315.25       111842.000       101.474831    
          12   531.783203       360.446747       77.0320129       64.9329605       8.85206604       45.4623260      -34.0127525       21.5089512      -40.9622765       1690324.00       97039.0000       111.015640    
          13   540.144104       188.002716       75.7916565       117.760841      -31.2341156       45.5768013       2.54019666      -44.7006531       89.5722198       1307246.88       75036.0000       216.190491    
          14   307.070160       526.028625       75.8309937       103.098602       113.794044       102.652390       17.4378376      0.876394451       13.8700209       1791389.12       102900.000       40.1377029    
          15   1724.01245       289.542236       75.7881546       95.2968979       41.2729111       20.6628017       33.6603355      -15.5731087       13.0561905       2207664.75       126768.000       95.3667679    
          16   413.566101       309.248566       76.0779114       56.4479561       130.673141       79.6929016      -36.4642601       21.1350193      -68.5903168       1866184.38       107175.000       154.166245    
          17   1290.33313       942.892090       76.0128860       220.513474       151.846420       74.1525192       3.24910235       5.10936308       46.0416069       2544508.25       146237.000       150.186539    
          18   393.071167       729.919861       76.1925049       141.407227       125.638275       101.613213       24.2568245      -17.3693504      -8.89271450       2320459.50       133350.000       64.1265793    
          19   1298.08167       612.309570       75.9122009       81.3238831       163.892899       35.8815460      -19.2520542      -10.4368324      -16.6051559       2502735.75       143771.000       122.068329    
          20   1144.70288       1111.50183       76.0110168       131.107986       97.4658661       85.8302765       1.81118786      -25.2014217       4.19238806       1840149.00       105727.000       60.2206726    
          21   462.978027       911.747498       76.3843536       96.5362396       101.231720       49.8820648       29.2451344       10.5184240      -23.5583115       2287816.00       131392.000       83.5490952    
          22   1568.27417       1076.14502       76.8887787       141.208923       58.3053551       61.3193245      -35.6017151       8.76007748      -4.96367073       2626444.25       150875.000       103.628159    
          23   82.9742279       591.537659       75.9696121       170.598862       60.2994614       17.4922199       4.34094143       39.5588341       14.0747404       1860699.00       106883.000       155.130798    
          24   1280.10388       454.853210       75.8092346       148.436279       126.727921       46.5806541      -22.8094940      -25.2610931       22.0696239       4474132.50       257119.000       116.495041    
          25   1596.13879       587.221252       76.3869400       112.091316       67.8625031       66.3143234      -4.38158560       20.4353046       3.00700688       4166474.75       239366.000       58.0050430    
          26   1420.75842       515.365234       76.4900589       119.118927       133.372650       132.200485      -25.4611969      -8.65050602      -14.8309517       2274503.75       130703.000       54.9273834    
          27   85.0411835       96.0708466       76.0756683       148.728134       191.294968       152.786758       4.90467405      -18.2885475       45.9533653       2151665.25       123659.000       95.2174377    
          28   218.776077       333.160309       76.3676224       1.00668383       125.925346       70.4443512       40.5706177       30.1197548       58.7027435       1478994.88       84947.0000       172.481186    
          29   1667.55334       836.832336       76.1473312       75.9981689       90.6627731       83.6456757      -1.19781554      -57.8806801       42.2106514       1894750.62       108852.000       124.745453    
          30   1470.29517       708.826965       76.7645416       129.318542       124.394669       140.177567      -14.1401615       7.59929991      -44.4872627       1711326.88       98316.0000       83.1027145    
          31   1180.50574       987.510376       76.2540512       90.1427994       74.6061630       76.5292969       19.1903229       23.7431526      -21.3667107       2329228.00       133798.000       66.1878586    
          32   1680.50378       1041.05994       76.4145584       123.195236       32.5961113       83.8530426       20.1291676       9.43267727      -19.7321758       1397219.50       80250.0000       94.0329437    
          33   1484.08813       88.4237747       76.5629272       26.9483700       47.2408295       114.016792       18.6308727      -18.2751884       17.2493248       1779170.75       102155.000       95.7170563    
          34   606.077698       96.1666489       76.4127808       240.824722       95.4767761       187.406250      -8.12049866       81.8091507       96.2286224       1037774.56       59647.0000       253.517609    
          35   942.304504       1037.65674       76.3949585       154.433350       44.0871544       121.784630       32.1143341       24.4747295       72.3962326       1878716.12       107923.000       173.937439    
          36   876.184204       181.576294       76.1821976       39.7140923       96.4081192       117.218468       14.0011539      -11.1768513      -6.01956511       1929073.75       110799.000       76.8028259    
          37   635.786316       263.058136       76.0396805       66.2486267       94.4393387       52.3401031       25.6685581       32.8117409      -42.1008835       1916702.38       110081.000       109.106209    
          38   1375.95020       407.096985       76.1685257       154.691086       105.721085       117.286980      -7.35631132      -13.7807121      -13.6743641       2226297.50       127919.000       57.0831299    
          39   1242.63953       504.401855       76.3863373       180.410080       162.423187       77.6036148       25.6913052       21.7545643       23.3052921       3611179.50       207550.000       118.629051    
          40   1004.69043       1116.40686       76.7430496       203.133224       248.639954       147.077271     -0.731862247      -48.6538582       8.81398964       1560164.50       89684.0000       122.883339    
          41   1676.71973       152.387650       76.3862228       88.8969040       53.3996086       99.4614105      -48.1936150       31.0531521      -59.0169182       2107384.25       121033.000       148.514099    
          42   1552.65479       442.288513       76.2558212       191.595581       74.2011948       93.2327347       53.3837395      -18.1994801      -14.4041481       3156189.25       181369.000       148.576645    
          43   233.487640       444.401642       75.8794174       241.407883       152.890076       108.741875       25.7893963      -56.8627014       9.84346294       1639230.75       94232.0000       160.244904    
          44   856.853699       722.664917       76.6506348       104.410927       39.8849106       69.4082031      -10.4391928      -12.1165218      -44.8633537       3571788.00       205185.000       99.6781464    
          45   686.056763       599.291382       76.1660614       123.955116       149.737640       149.586884      -24.2252579       10.1219301       74.8042755       2374325.75       136449.000       139.699188    
          46   1574.13989       148.594223       76.4309540       60.9290199       97.7706375       159.150925       22.6074409      -14.2498274       18.7158966       1813547.88       104166.000       102.856743    
          47   822.146301       1011.89093       76.1512451       100.488945       115.375832       66.5171585      -29.4038887      -14.9090157       82.0368271       2175275.25       124938.000       159.160812    
          48   947.209412       463.784271       75.9974213       124.963097      -19.9406357       86.1446152      -36.6872978      -23.3212032       12.1977301       2755905.00       158274.000       151.640656    
          49   1443.83374       769.600708       76.4676819       162.631058       109.851936       90.8259735      -6.20451164      -9.91715908      -13.1990566       2725085.00       156589.000       71.3090439    
          50   1085.01624       455.429749       76.6897736       211.706406       54.7198105       114.282692       12.3109226       22.1142979       23.3579502       1584019.50       90991.0000       149.668091    
          51   653.601440       930.120789       75.8598557       165.133621       192.951721       123.902725      -22.5578899       22.1491127       20.1709538       1453195.88       83497.0000       88.5422211    
          52   143.167206       224.594833       76.1108246       126.721771       142.858795       121.229317       24.3185959      -41.9828682      -28.2604523       2450672.50       140829.000       99.1817856    
          53   774.878540       812.793335       76.9586258       195.855408       114.283562       62.1932831       15.9193316      -19.6829624       75.3009720       3429457.25       197126.000       180.415375    
          54   634.719177       409.352844       76.3882675       21.0558891       72.6739807       56.2120590      -12.5233116      -46.9802513      -21.9393845       2380000.50       136640.000       103.061295    
          55   1717.47656       1127.98743       76.6912460       185.515533       155.868637       105.551147      -6.87445879       30.8363724       4.41261959       1902388.25       109366.000       89.1929321    
          56   739.114502       1097.55212       75.9266891       59.8188362      -196.925507       31.6832542       32.5202255       30.2201996      -22.3687496       2044875.88       117322.000       258.648743    
          57   525.110901       102.091591       76.3388977       131.716385      -57.3546715       97.9326935      -41.0742302       2.15435958      -20.1353607       1239228.12       71137.0000       191.815491    
          58   890.581055       832.616699       77.1799240       126.313362       101.329971       113.039803       1.27937508      -45.6262436       17.8772163       1275097.88       73238.0000       87.6224670    
          59   1606.02380       520.346191       76.5963974       151.710739       4.25510263       103.138817      -14.5074472      -35.7946854      -24.2764721       2387710.75       137163.000       152.261002    
          60   1425.45935       856.819092       76.7730865       213.932938       182.993973       96.5377426       60.6620178      -24.1505814      -28.9905605       2299803.50       132216.000       162.534653    
          61   1301.76257       825.079834       76.4893036       50.9948730       10.0521927       50.1032257      -80.2176743       39.4656563      -43.6012383       1744545.88       100146.000       176.977509    
          62   1421.37219       1029.73462       76.6908875       117.921364       121.296356       62.3009071       23.0501251       4.43593264      -19.2982559       3290679.00       189078.000       77.8650742    
          63   652.116760       137.149277       75.9085617       121.228554       78.8689270       106.166054       18.1804447      -28.8902435      -88.2737656       1609481.50       92449.0000       168.093643    
          64   407.971985       297.192535       76.9655685       79.4274063       198.701752       94.0399628       12.5633316       21.9347019       25.9701080       1911610.00       109821.000       128.985413    
          65   701.421204       972.823975       75.7804413       45.7058792       67.9080658       45.4884567       17.6016121      -23.2540073      -88.7229233       1908893.88       109629.000       163.293549    
          66   141.608536       511.719482       76.0263977       164.606689       13.6710815       36.3429298       13.7449894      -18.6040916       42.3914833       2030735.62       116629.000       163.920120    
          67   1486.69983       327.287415       76.1982498       112.389557       72.9322357       95.7697525      -39.5957375      0.386063188      -69.7348404       1637811.25       94072.0000       143.073700    
          68   117.176964       381.679169       76.0862961       80.6434097       91.6394577       59.3139496      -37.7400017       9.06452370      -73.3398361       1945279.88       111711.000       146.512833    
          69   146.884171       990.749329       75.7870560       110.113541       51.4955788       58.0682144       12.4086399      -9.17858887       24.6918049       3827637.00       219873.000       75.0846786    
          70   289.842010       230.538361       76.3956299       88.5788651       128.501373       98.1050339     -0.462436914       27.4245796      -14.2332363       2672557.25       153540.000       64.5675278    
          71   1526.05981       917.892639       77.2232590       105.694443       82.4441452       27.1692410      -21.0198345      -6.74766493      -20.1234417       2271595.75       130472.000       86.9367676    
          72   1070.61987       1028.67676       76.4278412       85.7833328       54.6314468       70.6940536      -68.2489624       12.8487396      -33.3059731       1331000.12       76407.0000       136.106445    
          73   165.976151       965.825684       76.5029831       159.987762       127.134636       86.6362839       18.5742741      -28.7790222       18.2068748       2815999.25       161819.000       92.5425339    
          74   1034.45959       358.543823       76.3019180       82.9304962       38.1789246       80.0722733      -8.24521351      -34.2154198      -33.2941360       1606090.00       92226.0000       94.4695587    
          75   1554.79736       757.858032       76.6082840       243.116074       180.396591       125.133331       18.3721313      -33.5423393       16.0064297       1918865.25       110328.000       124.941315    
          76   1581.38818       109.758377       76.2174072       155.676743       70.0813828       130.569702       6.84456491      -20.2537556       2.13059092       2171047.00       124723.000       84.8097229    
          77   1059.88843       559.563965       76.5147324       65.7668762      -69.6178513       88.6343155       29.3255558      -21.6667728       6.46020889       2280742.50       130933.000       161.435303    
          78   1253.40625       297.292542       76.4742432       120.251427       164.168930       93.6555634      -17.8680344      -1.15402782       14.7098455       3105650.00       178475.000       73.5869904    
          79   215.639664       690.369873       76.4777832       189.781265       108.543655       75.2728958       21.6777554      -10.1465101       40.5274696       3979931.50       228734.000       130.596268    
          80   609.221008       1073.42468       76.1858902       205.197510       210.417374       67.0929871      -13.2164230       40.7368622      -23.1796608       2351747.50       135199.000       164.120010    
          81   832.568909       516.482666       76.7394257       61.5135498      -3.99065852       78.5846100     -0.379831076      -10.3248386      -44.1581421       2099368.75       120554.000       108.951881    
          82   1152.16455       617.798035       76.8291016       40.6108437       68.7815781       52.5886497      -36.7646370      -36.5028343      -25.4030552       1847592.88       106065.000       102.897362    
          83   1730.09595       958.321106       76.3007965       124.692001       110.610054       118.829613      -19.4371529       46.2726860       48.3193092       1145122.38       65779.0000       121.290039    
          84   851.518311       241.359055       76.3551025       79.5398102      -100.849281       91.3034744      -7.49367142       7.36042929       20.6616001       2125664.50       122038.000       190.820190    
          85   1159.62744       832.194702       76.1681137       186.771515       161.844284       39.1426659       26.2001038      -10.2026987      -17.1313610       2482779.25       142688.000       148.282623    
          86   1297.60010       1109.94910       76.2808228       122.663544       95.6346970       94.7723999      -4.74537754      -29.2819691      -57.2268219       3091561.75       177616.000       114.974754    
          87   423.119110       636.818298       76.3555756       175.789505       103.553917       61.1596031      -22.9464340       2.34366536       9.22289658       5280409.00       303464.000       109.219574    
          88   808.545959       394.840454       76.1517410       139.558563       82.3856888       113.889992     -0.672403753     -0.366661370      -46.5004578       2618397.00       150450.000       94.5975952    
          89   643.030945       541.391296       76.5341568       144.739304       106.800957       52.7738838       2.21961856       24.8898430      -50.1579437       3790916.50       217795.000       125.812134    
          90   961.787476       277.486420       76.2185516       37.5261078       117.583908       120.311478       26.9609413      -5.10569143      -31.7972012       2656318.50       152566.000       109.211357    
          91   332.724335       376.164276       76.4618149       44.6654816       74.2657394       64.3863068       27.5803699      -21.8241425      -22.8575706       1712062.62       98305.0000       77.1988373    
          92   355.475861       492.553253       76.5440750       165.022781       91.4299698       90.2891541      -4.62101841       24.5846958       104.345230       1707493.12       98090.0000       200.105530    
          93   1260.61121       691.563171       75.8118668       76.9289398       115.158333       63.0229759       6.20372391      -68.9616318      -31.3181038       2352217.25       135127.000       139.683670    
          94   1693.33875       709.847656       76.6303253       154.998795       43.1378899       58.7096901      -25.8023281       8.13220978      -20.1351929       2477906.50       142341.000       120.105888    
          95   1009.18317       833.595093       77.0576172       116.502846      -102.645798       61.7978172      -1.86650801       5.82626276E-02  -1.62886500       1793864.38       102985.000       197.607346    
          96   1364.57544       732.409302       75.4647446       88.9665146       138.949524       47.0329742      -23.2994881       33.0350533       12.3571386       1532254.75       88010.0000       108.228119    
          97   1039.70117       708.974060       77.0393066       72.6871643      -4.10577011       62.1320992      -8.64647675      -9.47747421       36.6305733       2297936.25       131946.000       98.5756607    
          98   664.260193       863.163391       76.4998779       99.4920349       39.4045448       102.145828      -11.9328861       11.2637815       26.2708855       1962395.62       112719.000       81.5799408    
          99   1162.91602       378.323151       76.4318771      -55.5020065       27.8989925       67.5512009      -15.2913122       15.3332376       73.6991196       1790804.75       102768.000       171.861969    
         100   395.379303       121.566238       76.5877075       204.460571       159.292343       86.1827164      -38.5888405       10.2189722      -20.6166649       3178728.00       182728.000       129.395279    
         101   517.532410       746.634644       76.3866272       103.826385      -5.35333920       100.986488      -9.37520599      -8.38437939      -52.0072975       2249752.75       129193.000       142.151581    
         102   212.040314       151.731400       76.2430420       111.425407       126.400665       100.565193       6.43711376       10.3557816      0.725143254       3130264.50       179861.000       30.8617973    
         103   477.980316       464.564880       77.2090454       114.253395       44.6500282       40.3265343      -3.32171941      -2.28196597       27.7157593       2954136.00       169678.000       86.7033157    
         104   1051.38916       927.962280       76.8332367       193.367172       92.6652145       88.4094467       30.7567787      -36.8944016      -57.1846657       1856289.25       106648.000       165.285660    
         105   1117.33459       149.499344       76.3851318       151.477264       146.485672       111.998718       14.1749372      -7.54225016       15.2420664       3751045.25       215621.000       53.4491882    
         106   1628.91162       821.694702       76.7036133       159.925705       92.7379608       72.8839798      -13.4277191       44.6216736       51.7501144       1557052.12       89460.0000       144.189911    
         107   920.200867       739.791382       76.2493057       197.454681       33.4334030       85.4764481       17.2847366       28.6505909      -6.73975992       1725958.25       99156.0000       156.749542    
         108   926.324341       123.626480       76.4502792       176.972397      -15.1847601       48.1270332      -33.1296234       8.46914291       37.5744934       3245145.25       186416.000       191.076859    
         109   1193.31665       422.477875       76.4443970       212.677399       188.540894       98.4230423      -25.1279278       7.02945852       9.16557980       2562300.00       147293.000       114.775558    
         110   1366.44421       268.414764       76.4448853       167.318146       99.2084122       82.3686218       14.7563190      -18.2304993       83.4788055       2308810.75       132667.000       169.191910    
         111   248.966263       1086.01135       75.9720917       176.280090       160.919022       65.2024231      -9.25357437      -33.3100014      -33.8516083       3873886.75       222685.000       133.758316    
         112   1634.61108       936.512756       75.9600830       25.6445732      -26.2701416       49.1306305       33.4663467      -7.60214615      -38.0679703       1586234.88       90880.0000       111.116531    
         113   1317.36670       105.801437       76.4203262       2.53059316       63.6776543       44.8737717       4.08505774      -3.01036215      -11.7748880       3950488.25       225069.000       58.6168976    
         114   1468.29358       208.178345       76.7829208       50.1874237      -54.2803154       45.3866348      -16.6080475       7.92655659       13.9240303       2171033.75       123739.000       109.693375    
         115   272.065582       568.778870       75.9300003       84.8922501       121.373543       73.5176239      -44.6676750       22.2074947       46.0041466       1763394.25       100677.000       125.257713    
         116   864.576233       1052.96924       76.1985397       58.2094498       120.745804       62.4731026      -24.8392639      -8.41582966      -16.9264202       1904877.25       108684.000       81.1498489    
         117   331.245422       858.523743       76.3237381       37.6827278       55.0322876       6.97825241      0.369729012       41.0281944      -66.9475861       6202146.50       353779.000       142.382462    
         118   905.265320       929.254883       76.8226013       108.619232      -29.1179104       11.7203817      -38.2037888       11.5826597       50.8691406       1725970.75       98395.0000       166.007248    
         119   1035.85999       434.085693       76.6082764      -3.21042180      -12.8970575       37.0126495       28.7148170       42.3442802      -2.78670073       2561537.75       146065.000       99.8868637    
         120   738.945435       632.763794       76.3330154       34.5105133       14.1989756       37.3266983       15.3769398       14.9033279       3.21401334       3199414.75       182347.000       43.4091988    
         121   572.461243       750.439514       76.6041794       225.626984       114.346588       81.2634659      -6.95102358      -41.3866348       11.0841684       5498139.50       313660.000       151.034470    
         122   564.537781       944.896790       76.7861481      -16.2622662       20.6099949       81.2682037       1.01916432      -64.7745056       29.9568729       1972693.25       112369.000       150.193741    
 #=======================STRUCTURE TYPES:FCC+HCP+other defects=======================
 #GRAIN NUMBER| COORDINATES: X Y Z | STRESS XX YY ZZ ZY XZ XY | GRAIN VOLUME | NUMBER OF ATOMS | VON-MISES STRESS |
 #AVERAGE VON MISES STRESS FOR THIS STRUCTURE TYPE IS   38.3576050    
           1   443.191193       1046.50635       76.5300751       40.9030876      -64.8835449      -26.9511929       25.9771347      -6.77324384E-02  -13.4628792       3421518.00       192129.000       105.759796    
           2   397.799805       965.655029       76.2454987       46.5494270       64.3373642       29.1298504      -10.3524904      -23.1762314       3.88534117       2477220.00       139104.000       53.9252586    
           3   890.020203       638.379883       76.4364471      -23.6715946      -179.248672      0.903639555       12.4916830       13.4766493      -65.1601486       3329914.75       186963.000       205.868973    
           4   1390.94910       612.702209       76.3536682       28.6860600       4.56266022      -13.2185659      -7.19881201      0.503116786      -20.2549610       2771504.25       155631.000       52.0967598    
           5   495.401154       256.357605       76.6791916      -91.8994446      -132.132248       21.1884880     -0.190587208      -32.0321808       5.65956068       1731425.88       96915.0000       148.767563    
           6   120.688240       836.624512       75.9276962      -62.3464584      -62.4492416      -20.4296761       14.4900093       5.07307577       22.6371632       4093840.25       229950.000       63.2909813    
           7   762.550720       146.449646       75.9878006       66.5692520       37.1110153       45.3097534       10.6355352       11.2446918       14.8496017       2953551.75       166047.000       45.5378036    
           8   1614.59692       308.989868       76.6667099       46.0431290       55.3982582       23.8140831       1.14092195      -6.12978506       9.74366856       3320823.00       186459.000       34.5115891    
           9   740.952576       302.957184       76.3994980      -73.5880280      -42.0676270      -44.4073830       14.8385649      0.378778666      -28.0501957       2216150.50       124068.000       62.8226089    
          10   1152.75623       717.495605       76.3785172       62.4492264       72.1286926       17.3732109       6.91601229      -1.04727161      -33.2640533       1540917.12       86352.0000       77.6410065    
          11   1114.01050       264.787079       76.3940277       84.8123398      -6.76746941      -29.5276909       16.8881168       3.97759438       7.46077776       2282455.00       127995.000       109.815048    
          12   533.174805       359.392365       77.0920410      -54.2837906      -102.617752      -24.3789825      -26.2426414       20.6728382      -38.1501999       1955824.12       109704.000       111.311852    
          13   538.358337       187.847839       75.8615646      -33.7537155      -148.215668      -17.3498440      -9.38803577      -28.6098900       67.6379547       1600137.25       89607.0000       178.025009    
          14   307.143829       523.860413       75.8997574      -16.0164146       15.7016544       11.4068718       12.6419468       4.16545725       23.7325859       2094394.38       117474.000       55.7626686    
          15   1725.13208       287.407867       75.9045105      -17.2630615      -87.4964905      -33.8503799       27.2377701      -15.7620668      0.989658356       2544784.00       142821.000       83.7666092    
          16   451.384888       310.070374       76.1846237      -42.0736427      -5.23499537       20.8910408      -28.3265877       11.9324980      -50.8279953       2190711.75       122913.000       116.562851    
          17   1290.83423       943.542236       76.1252365       106.516403       10.1494198       21.3477039       1.37582314      -2.73535800       41.5214806       2972331.00       167013.000       116.331757    
          18   409.907990       729.203918       76.1477585       13.6931238       22.4404163       21.5868778       15.7670546      -17.1770115      -20.8855801       2589926.50       145551.000       54.8575363    
          19   1296.86462       611.018738       76.0176315      -31.5664139       25.2686176      -24.4850998      -18.2092590      -4.37100983      -13.1821241       2905371.75       163086.000       66.7177124    
          20   1143.60034       1112.73096       76.0365677       25.6778965      -15.6248789       25.0573673       7.04799795      -20.0776119       5.11820364       2055348.88       115521.000       55.8356247    
          21   461.762329       911.416626       76.3947296      -29.0390911      -37.3848000      -23.1646366       24.0064297       3.21846437      -17.7286911       2681373.25       150360.000       53.4425621    
          22   1567.21497       1076.55444       76.7585526       22.0629253      -64.3888397       17.6962337      -31.3914318       5.50120068       7.56392670       2959955.75       166320.000       101.657082    
          23   81.0026703       591.933350       75.9661255       33.3937759      -68.4497299      -37.0587044      -4.10859871       28.5509682       25.6919327       2124035.00       119301.000       112.413811    
          24   1258.50220       455.188080       75.7515640       27.4015751       5.26258707      -9.89480209      -19.9492455      -24.1036358       16.7211094       4941032.00       277977.000       69.5061874    
          25   1595.35327       588.339783       76.4375534      -13.8617096      -41.7236252      -1.07135034      -6.43809795       16.0511112       7.91415358       4643909.00       260988.000       48.7996597    
          26   1420.59680       515.698181       76.4583282      -2.16713214      -16.4619179       10.9026480      -14.3056564      -13.1756945      -32.6554222       2669821.75       149667.000       69.9705048    
          27   84.9450073       95.7428970       76.1093063       22.0586147       78.2380371       32.5713158      -3.38229513      -11.1480131       39.2177162       2461314.75       138138.000       87.7341919    
          28   219.302536       331.365784       76.4297409      -141.422272      -21.2107868      -33.2736511       36.6686630       27.2278938       34.7294197       1763952.12       98826.0000       151.731552    
          29   1663.63708       836.475098       76.0774918      -38.2139854      -29.5068150       36.0798340      -1.99667680      -54.5658798       46.1838684       2102034.50       118167.000       142.448639    
          30   1469.98230       708.430725       76.6212006      -3.56327009      -13.0248966       57.6849823      -19.0814667       8.82510376      -35.5263100       1983617.75       111342.000       97.6354904    
          31   1180.94946       986.511780       76.3318558      -39.2346153      -46.4876175      -2.77245140       23.0377064       20.7257957      -34.9605560       2636819.25       148050.000       90.5215988    
          32   1682.98499       1041.75952       76.4378510       4.68794966      -97.7441559      -16.2709465       10.8610849       4.04252386      -7.56963539       1631026.88       91413.0000       96.7448196    
          33   1482.87256       89.4766617       76.5871124      -94.4078751      -35.8655891       6.50524569       4.15604877      -20.2487831       18.1600037       2087585.38       116949.000       99.8708572    
          34   604.594421       101.846146       76.3880234       102.588310      -34.3968048       55.4652710      -2.04330420       78.7642899       94.5862198       1236995.12       69321.0000       244.936676    
          35   943.103821       1036.46936       76.5374985       23.5761890      -75.8183670       20.3206062       29.6413784       20.2002831       76.0777283       2167035.00       121548.000       175.470047    
          36   868.151184       182.274399       75.9558105      -66.0768814      -19.2676163       31.8674889       15.7400227      -10.3040590      -4.35460663       2155175.25       121023.000       91.2039261    
          37   636.510193       262.648987       75.9594269      -99.6726913      -57.5190086      -29.1063328       21.6976738       38.5688400      -48.9582520       2264743.50       126966.000       129.798599    
          38   1376.73279       407.144501       76.2580719       34.4882698      -7.17335558      -11.7697458       6.29190731      -22.0493507       12.4203043       2582143.00       144837.000       63.1536903    
          39   1243.07715       504.149292       76.3770676       41.2237816       40.8945618      -9.13588619       20.3947849       25.9737740       23.3312035       4069699.00       228753.000       86.1650314    
          40   1003.81036       1117.32275       76.5741043       76.7530594       81.2474670       21.9553890      -5.27290058      -44.6516724       7.34053850       1878220.12       105294.000       97.4455872    
          41   1677.20813       151.954269       76.4002380      -43.1749077      -58.1057663      0.736898243      -44.3919296       32.0747604      -66.5098953       2356348.00       132300.000       158.353455    
          42   1554.21594       442.591980       76.2808990       56.5521851      -33.8851051       10.8451862       37.9429512      -14.5739222      -10.6742582       3606916.75       202587.000       106.922569    
          43   233.895096       444.871246       75.8736954       135.010803      -10.1795750       36.8891602       28.3107738      -58.0826302       27.2194595       1931909.12       108444.000       176.662842    
          44   856.852844       711.052917       76.6754913      -7.13687611      -84.0122757       17.4340153      -14.7555981      -14.0273066      -47.9559631       3963913.50       222852.000       128.628357    
          45   687.041321       610.513367       76.2261505       20.2834167       13.3830767       27.3397331      -11.6201019       7.83481359       75.2058945       2737587.00       153573.000       133.053040    
          46   1573.94409       148.016373       76.5374146      -89.3161469      -27.8916721       27.1478729       22.2643852      -6.72483063       20.5429573       2073985.38       116277.000       114.332451    
          47   822.562927       1012.95685       76.1084747      -21.1358681      -24.7853546      -44.7477837      -22.0562553      -5.72779322       58.2293358       2602618.00       145866.000       110.519203    
          48   947.388123       464.711487       76.0436020      -3.97249460      -131.781525       2.12010527      -30.1853142      -26.6170635       12.2381325       3188004.50       178836.000       149.863724    
          49   1444.35376       757.286621       76.5624084       49.1918182      -19.8198090       1.96380138      0.636164784      -3.46073723      -25.6037788       3073583.75       172704.000       75.7470322    
          50   1083.71350       455.929260       76.5835037       45.8477364      -58.5827217      -3.25365067       6.25021219       19.3707771       28.6360931       1870754.50       104895.000       109.050179    
          51   683.598633       928.037537       76.0143661       17.7338619       33.4730034       10.8852282      -19.8506374       25.6216755       28.9871883       1762021.88       98679.0000       77.9406281    
          52   143.131363       223.625961       76.0880127      -3.15586352     -0.462789059       7.10795259       20.2705078      -29.2236156      -39.6366310       2824995.50       158550.000       92.6978149    
          53   775.125183       812.814392       76.9201355       84.2220612      -18.9824600       5.71618128       11.9027109      -15.4338980       65.2536926       3798361.25       213696.000       150.419266    
          54   632.950684       410.673553       76.4796906      -105.068771      -52.5843773      -9.84631252      -9.20355797      -41.4342575      -21.4570179       2824322.00       158298.000       116.661713    
          55   1716.21240       1115.20276       76.7804184       62.3594437       44.1976967       36.9757080     -0.244433448       25.7658138       1.34044945       2179906.50       122451.000       50.1036072    
          56   740.224548       1099.58887       76.1368484      -80.2791290      -330.007568      -42.4146576       28.4146156       31.3406448      -19.5965023       2342238.75       131313.000       282.444305    
          57   525.761719       102.595558       76.4035568      -1.60352874      -156.740860       3.33322072      -38.4043770       1.85926437      -15.0420179       1498309.25       83874.0000       173.123322    
          58   891.154236       832.335754       77.1773834       21.1341305      -14.1945791       18.8099842      -5.65356255      -32.7452049       37.3925934       1567712.75       87738.0000       93.1593399    
          59   1606.78882       532.693420       76.4866333      -10.1567268      -121.945427       1.92821968      -10.2461920      -37.7904778      -17.8571911       2776702.00       155652.000       139.820145    
          60   1423.86719       858.093994       76.5557251       92.2080307       61.6038818       26.9859638       54.0148621      -25.8732853      -13.6529446       2621386.75       147378.000       120.477264    
          61   1301.78992       825.362610       76.3692093      -90.2614899      -115.116692      -46.8198318      -87.7027359       29.6302528      -42.4348373       2075187.38       116214.000       186.268692    
          62   1422.19299       1030.58057       76.7106934      -15.1988668      -10.1455126      -25.6077919       24.1542988       1.95334435      -8.39146519       3790652.50       212793.000       46.4700928    
          63   652.421997       136.136292       75.9524384      -24.3484116      -78.5178909      -34.0372620       19.2586136      -37.3872147      -61.5812798       1886004.75       105672.000       138.514343    
          64   408.789215       296.852600       76.9200058      -74.3005524       53.0373650       32.4295616       5.58919287       27.5070820       29.7005329       2251150.75       126294.000       137.932861    
          65   702.155884       970.977234       75.8733902      -81.3542252      -65.2054367      -31.3139725       17.7142754      -24.3379250      -77.1016388       2185941.50       122640.000       150.030319    
          66   142.168716       511.873230       76.0736847       21.6642227      -118.501007      -26.8448219       7.54958868      -18.5761204       29.9042168       2297722.75       129066.000       138.163406    
          67   1486.68359       325.423584       76.1393280      -30.0595264      -88.8392105      -22.0585651      -27.8146305       7.10330582      -70.3888397       1967045.00       110145.000       146.032394    
          68   117.289574       380.148895       75.9035797      -73.1637268      -34.7486343      -48.8245392      -14.8454189       5.41229057      -57.2168427       2294470.00       128604.000       108.182541    
          69   146.201630       990.837036       75.7189560      -14.2234507      -63.5667191      -9.86049652       14.1368895      -1.15973067       30.9568596       4260312.50       239442.000       78.4069366    
          70   289.491516       230.799088       76.6268234      -44.2822304      -26.6260662       12.7618809      -1.62908971       25.1283073      -16.3899174       3055312.75       171507.000       72.5722809    
          71   1525.29150       917.233887       77.1042099      -34.5145950      -49.6155396      -3.47815800      -15.2056398      -10.9186840      -23.5364571       2645224.25       148512.000       66.1298752    
          72   1072.02991       1029.06860       76.3354645      -88.8386688      -67.4129181      -19.6045074      -44.2022324       4.95505476      -8.02784634       1607541.12       90006.0000       99.4864120    
          73   195.155060       956.201355       76.5074692       40.4337158      -9.36844254      -15.0147657       12.2478304      -24.4634209       15.8014812       3253254.00       182679.000       76.0775909    
          74   1034.09387       359.357391       76.2193451      -42.8501434      -66.4450836      -22.0033627      -10.2133036      -42.4043579      -21.5511608       1849458.62       103719.000       92.6491699    
          75   1552.73328       757.910950       76.6052322       106.256798       25.9129581       23.8516655       6.53261089      -29.8678970       15.6630449       2239168.75       125685.000       100.823036    
          76   1561.99524       115.210236       76.2384720       18.9748402      -55.2673645       16.7805405       9.82131863      -21.5104542       1.06664205       2478529.25       139083.000       83.8731003    
          77   1059.01440       559.297485       76.4089508      -63.2361832      -174.861603      -30.9182301       24.5423489      -23.7070923      -3.13548732       2617282.75       146706.000       143.647980    
          78   1254.35327       295.898193       76.3381042       8.23759460       38.3479500       45.2708397      -19.1437302       3.14409924       16.2289677       3540588.50       198954.000       55.5180321    
          79   214.643326       689.537842       76.3500595       61.5647964      -9.30554676       25.3675404       12.3402109      -19.7207775       27.3009281       4507850.00       253470.000       87.3334274    
          80   608.652161       1073.15112       76.1841507       63.9046440       89.2051392       8.78208923      -9.87520790       36.7817574      -18.9420471       2609354.50       146874.000       102.473869    
          81   831.602051       514.253052       76.6105576      -76.7044296      -108.764175       17.8222027      -4.67704391      -10.8741760      -44.0369110       2407893.50       135072.000       138.678497    
          82   1150.75830       618.593933       76.5596390      -84.6746750      -42.9115105      -45.8477478      -46.5587044      -22.4830303      -43.4194908       2122134.25       119091.000       123.715446    
          83   1729.96277       960.391846       76.4026413      -5.53119802      -22.9378910       38.9537582      -27.1091709       41.4784584       39.0023460       1363246.00       76398.0000       122.416901    
          84   850.299561       242.629929       76.4128113      -54.6139832      -205.383453       27.4884148      -17.5682182       2.34275866       37.3991890       2383362.00       133749.000       216.770081    
          85   1159.10999       831.731812       76.2099457       45.5107460       32.1128540      -37.6559486       23.7780209      -2.79182863      -20.8810768       2867430.00       161049.000       94.9187469    
          86   1298.25244       1101.05298       76.2618027      -23.6865788      -14.7426729       3.86351085      -3.58091784      -24.1423340      -54.9444199       3505047.25       196833.000       106.940590    
          87   423.256622       637.197693       76.4235001       66.9699020      -22.4193172       11.7605286      -13.9844236       3.57086802       21.5314407       5925702.50       333270.000       90.1062698    
          88   809.528076       394.856903       76.0578918       3.66663241      -63.6108093       32.2277145      -2.59863234       4.57686901      -38.5998230       2967838.75       166635.000       108.703484    
          89   643.747253       541.275452       76.4335251       24.5678749      -25.8288803      -4.90596342       2.87657428       25.9373188      -46.7067146       4309199.50       242109.000       102.522011    
          90   960.935730       277.983612       76.3111038      -72.9115295      -23.1319771      -10.7606649       18.7008667     -0.439947367      -38.5091934       3035978.50       170289.000       93.5174484    
          91   333.051819       375.885040       76.4276657      -55.5926285      -34.8905716      -3.78019142       17.3681469      -18.3989925      -39.1392555       1961773.38       110124.000       92.5021667    
          92   355.797668       492.537628       76.3057251       40.0595894      -41.8121948       9.86287212       1.30569470       27.7562523       97.9875183       1970469.38       110628.000       190.429977    
          93   1259.13916       690.588867       76.0174179      -45.6998558      -33.1894302       24.9154396       7.90711021      -64.2120743      -25.9018631       2642426.75       148575.000       137.220490    
          94   1693.69312       710.699280       76.7761002       28.7855206      -94.9851379      -14.8043623      -25.4166927       5.36573553      -23.6947079       2882023.50       161700.000       124.630737    
          95   1009.07220       834.767090       77.0833893      -1.56978035      -225.309082      -8.23066807      -8.74022675       2.70678830       13.2939186       2010766.00       112854.000       222.249146    
          96   1363.60120       730.881958       75.7199097      -47.3504257      -28.8351746      -20.2981777      -24.3952885       23.7256012       25.4091110       1877528.88       105210.000       77.3610458    
          97   1039.82263       707.518250       77.0570221      -43.5670471      -141.968536       33.7171516      -1.57409704      -6.23824072       36.3531647       2585352.00       145194.000       165.376587    
          98   663.584290       865.133484       76.5832825      -32.5608292      -92.8544617       14.4593067      -11.7725306       8.17592525       6.64694214       2212820.75       124131.000       97.1086502    
          99   1162.40405       377.628204       76.5152664      -150.351257      -106.388321      -31.6322765      -5.65429735       12.5321407       73.6212311       2041688.50       114408.000       166.237885    
         100   394.980377       121.396027       76.5996017       82.2703171       48.8071556       17.5481586      -35.4633713       1.04788232      -13.5173807       3563294.25       200382.000       86.4137650    
         101   517.682861       731.746033       76.4357910      -20.5940952      -149.933228      -8.76118851      -2.30988145      -8.93750381      -55.0155449       2564847.75       143829.000       166.537872    
         102   212.928299       162.448761       76.2194748      -6.54609776       6.12293148       6.91172934       5.52981615       5.16982555       9.88401222       3573963.25       200655.000       25.2213955    
         103   476.562195       465.535736       77.1694183      -20.6166382      -68.3293381      -4.15076303      -5.83684540      -8.73434067       29.4757423       3342679.25       187845.000       79.1883087    
         104   1052.26465       928.687683       76.8739548       75.4942017      -55.2385216      -3.98255730       35.3489265      -28.5388680      -60.6033478       2186478.75       122619.000       173.861221    
         105   1117.33826       149.096771       76.4911041       21.6664009       23.4764004       44.9826927       14.1960468      -11.1433210       15.0411243       4123368.75       231966.000       46.4815407    
         106   1629.54211       822.943542       76.6503296       25.9417000      -17.5739536      -24.8736935      -9.01363468       36.5221138       56.2240372       1809315.38       101472.000       126.464661    
         107   920.868042       738.817261       76.4469376       42.2155838      -129.193390      -17.8831291       6.55149841       16.4051132      -16.7059002       2116129.25       118461.000       156.412415    
         108   926.175537       121.594124       76.3614273       60.2390900      -134.438416      -13.3118286      -36.1736374       5.67514896       33.6163559       3625709.00       203763.000       190.795074    
         109   1193.69861       434.934326       76.3554535       72.6350708       47.6811638      -41.1026382      -27.8652649       3.44341564       17.1967697       2995556.75       168063.000       118.207191    
         110   1364.72888       268.197693       76.4733505       9.15638828      -40.7095871       12.7867270       12.3481016      -14.9701834       82.2715912       2630615.25       147756.000       155.294601    
         111   248.514374       1086.65942       75.8670425       70.0806427       36.7989922       18.4393940      -6.16588497      -27.9099712      -24.0414200       4274422.00       240597.000       78.9981308    
         112   1634.34570       936.217163       76.3591309      -103.380234      -136.185837      -25.0968285       36.8197441      -3.95557904      -30.5507641       1937180.62       108444.000       129.177002    
         113   1318.35083       106.443085       76.3755951      -73.1999207      -9.86729145       13.4982338      -1.01176834      -1.32378840      -3.46443439       4388758.00       246666.000       77.9814377    
         114   1467.51086       206.802078       76.7388687      -32.9883423      -139.695694      -6.68000793      -16.1882133       1.56554794       16.3428001       2402382.25       134841.000       128.377060    
         115   271.832489       568.512939       76.4316864      -61.8299294      -18.2965374      -37.0812683      -48.3114624       17.9933701       26.7615910       2152178.50       120435.000       107.480621    
         116   838.341431       1053.01294       76.1125870      -28.7099609       17.0600338      -23.0023003      -30.9392509      -9.04789734      -6.53046513       2174591.25       122010.000       71.4945908    
         117   330.869415       858.429077       76.3199539      -49.2164116      -36.2844009      -19.9865456      -2.61287093       31.4224586      -61.4212341       6935879.00       389886.000       122.245323    
         118   905.242676       929.055115       76.5230865      -2.80846810      -118.777245      -53.5137024      -39.3607216       9.84847927       48.0061417       2030500.88       113736.000       148.297333    
         119   1035.48328       438.688110       76.5545883      -80.2056580      -109.109390      -34.9045486       26.9287510       46.7571373      -1.02611434       2951760.25       165459.000       113.729103    
         120   737.805237       633.471680       76.4617691      -26.9864864      -59.2689667      -9.67321968       13.3811979       14.5161152      -3.49739933       3675947.50       206388.000       55.7390404    
         121   571.207947       749.840271       76.4529266       145.748413       38.6566696       40.6320648      -8.98630619      -36.0556946       5.89017057       6015963.50       338772.000       124.528625    
         122   566.040955       946.056824       76.5498657      -112.470718      -81.6825485       32.3348885       5.01393843      -56.2457161       39.3591385       2262698.50       126966.000       177.965897    
 #=======================ALL STRUCTURE TYPES=======================
 #GRAIN NUMBER| COORDINATES: X Y Z | STRESS XX YY ZZ ZY XZ XY | GRAIN VOLUME | NUMBER OF ATOMS | VON-MISES STRESS |
 #AVERAGE VON MISES STRESS FOR THIS STRUCTURE TYPE IS   38.3576050    
           1   443.191193       1046.50635       76.5300751       40.9030876      -64.8835449      -26.9511929       25.9771347      -6.77324384E-02  -13.4628792       3421518.00       192129.000       105.759796    
           2   397.799805       965.655029       76.2454987       46.5494270       64.3373642       29.1298504      -10.3524904      -23.1762314       3.88534117       2477220.00       139104.000       53.9252586    
           3   890.020203       638.379883       76.4364471      -23.6715946      -179.248672      0.903639555       12.4916830       13.4766493      -65.1601486       3329914.75       186963.000       205.868973    
           4   1390.94910       612.702209       76.3536682       28.6860600       4.56266022      -13.2185659      -7.19881201      0.503116786      -20.2549610       2771504.25       155631.000       52.0967598    
           5   495.401154       256.357605       76.6791916      -91.8994446      -132.132248       21.1884880     -0.190587208      -32.0321808       5.65956068       1731425.88       96915.0000       148.767563    
           6   120.688240       836.624512       75.9276962      -62.3464584      -62.4492416      -20.4296761       14.4900093       5.07307577       22.6371632       4093840.25       229950.000       63.2909813    
           7   762.550720       146.449646       75.9878006       66.5692520       37.1110153       45.3097534       10.6355352       11.2446918       14.8496017       2953551.75       166047.000       45.5378036    
           8   1614.59692       308.989868       76.6667099       46.0431290       55.3982582       23.8140831       1.14092195      -6.12978506       9.74366856       3320823.00       186459.000       34.5115891    
           9   740.952576       302.957184       76.3994980      -73.5880280      -42.0676270      -44.4073830       14.8385649      0.378778666      -28.0501957       2216150.50       124068.000       62.8226089    
          10   1152.75623       717.495605       76.3785172       62.4492264       72.1286926       17.3732109       6.91601229      -1.04727161      -33.2640533       1540917.12       86352.0000       77.6410065    
          11   1114.01050       264.787079       76.3940277       84.8123398      -6.76746941      -29.5276909       16.8881168       3.97759438       7.46077776       2282455.00       127995.000       109.815048    
          12   533.174805       359.392365       77.0920410      -54.2837906      -102.617752      -24.3789825      -26.2426414       20.6728382      -38.1501999       1955824.12       109704.000       111.311852    
          13   538.358337       187.847839       75.8615646      -33.7537155      -148.215668      -17.3498440      -9.38803577      -28.6098900       67.6379547       1600137.25       89607.0000       178.025009    
          14   307.143829       523.860413       75.8997574      -16.0164146       15.7016544       11.4068718       12.6419468       4.16545725       23.7325859       2094394.38       117474.000       55.7626686    
          15   1725.13208       287.407867       75.9045105      -17.2630615      -87.4964905      -33.8503799       27.2377701      -15.7620668      0.989658356       2544784.00       142821.000       83.7666092    
          16   451.384888       310.070374       76.1846237      -42.0736427      -5.23499537       20.8910408      -28.3265877       11.9324980      -50.8279953       2190711.75       122913.000       116.562851    
          17   1290.83423       943.542236       76.1252365       106.516403       10.1494198       21.3477039       1.37582314      -2.73535800       41.5214806       2972331.00       167013.000       116.331757    
          18   409.907990       729.203918       76.1477585       13.6931238       22.4404163       21.5868778       15.7670546      -17.1770115      -20.8855801       2589926.50       145551.000       54.8575363    
          19   1296.86462       611.018738       76.0176315      -31.5664139       25.2686176      -24.4850998      -18.2092590      -4.37100983      -13.1821241       2905371.75       163086.000       66.7177124    
          20   1143.60034       1112.73096       76.0365677       25.6778965      -15.6248789       25.0573673       7.04799795      -20.0776119       5.11820364       2055348.88       115521.000       55.8356247    
          21   461.762329       911.416626       76.3947296      -29.0390911      -37.3848000      -23.1646366       24.0064297       3.21846437      -17.7286911       2681373.25       150360.000       53.4425621    
          22   1567.21497       1076.55444       76.7585526       22.0629253      -64.3888397       17.6962337      -31.3914318       5.50120068       7.56392670       2959955.75       166320.000       101.657082    
          23   81.0026703       591.933350       75.9661255       33.3937759      -68.4497299      -37.0587044      -4.10859871       28.5509682       25.6919327       2124035.00       119301.000       112.413811    
          24   1258.50220       455.188080       75.7515640       27.4015751       5.26258707      -9.89480209      -19.9492455      -24.1036358       16.7211094       4941032.00       277977.000       69.5061874    
          25   1595.35327       588.339783       76.4375534      -13.8617096      -41.7236252      -1.07135034      -6.43809795       16.0511112       7.91415358       4643909.00       260988.000       48.7996597    
          26   1420.59680       515.698181       76.4583282      -2.16713214      -16.4619179       10.9026480      -14.3056564      -13.1756945      -32.6554222       2669821.75       149667.000       69.9705048    
          27   84.9450073       95.7428970       76.1093063       22.0586147       78.2380371       32.5713158      -3.38229513      -11.1480131       39.2177162       2461314.75       138138.000       87.7341919    
          28   219.302536       331.365784       76.4297409      -141.422272      -21.2107868      -33.2736511       36.6686630       27.2278938       34.7294197       1763952.12       98826.0000       151.731552    
          29   1663.63708       836.475098       76.0774918      -38.2139854      -29.5068150       36.0798340      -1.99667680      -54.5658798       46.1838684       2102034.50       118167.000       142.448639    
          30   1469.98230       708.430725       76.6212006      -3.56327009      -13.0248966       57.6849823      -19.0814667       8.82510376      -35.5263100       1983617.75       111342.000       97.6354904    
          31   1180.94946       986.511780       76.3318558      -39.2346153      -46.4876175      -2.77245140       23.0377064       20.7257957      -34.9605560       2636819.25       148050.000       90.5215988    
          32   1682.98499       1041.75952       76.4378510       4.68794966      -97.7441559      -16.2709465       10.8610849       4.04252386      -7.56963539       1631026.88       91413.0000       96.7448196    
          33   1482.87256       89.4766617       76.5871124      -94.4078751      -35.8655891       6.50524569       4.15604877      -20.2487831       18.1600037       2087585.38       116949.000       99.8708572    
          34   604.594421       101.846146       76.3880234       102.588310      -34.3968048       55.4652710      -2.04330420       78.7642899       94.5862198       1236995.12       69321.0000       244.936676    
          35   943.103821       1036.46936       76.5374985       23.5761890      -75.8183670       20.3206062       29.6413784       20.2002831       76.0777283       2167035.00       121548.000       175.470047    
          36   868.151184       182.274399       75.9558105      -66.0768814      -19.2676163       31.8674889       15.7400227      -10.3040590      -4.35460663       2155175.25       121023.000       91.2039261    
          37   636.510193       262.648987       75.9594269      -99.6726913      -57.5190086      -29.1063328       21.6976738       38.5688400      -48.9582520       2264743.50       126966.000       129.798599    
          38   1376.73279       407.144501       76.2580719       34.4882698      -7.17335558      -11.7697458       6.29190731      -22.0493507       12.4203043       2582143.00       144837.000       63.1536903    
          39   1243.07715       504.149292       76.3770676       41.2237816       40.8945618      -9.13588619       20.3947849       25.9737740       23.3312035       4069699.00       228753.000       86.1650314    
          40   1003.81036       1117.32275       76.5741043       76.7530594       81.2474670       21.9553890      -5.27290058      -44.6516724       7.34053850       1878220.12       105294.000       97.4455872    
          41   1677.20813       151.954269       76.4002380      -43.1749077      -58.1057663      0.736898243      -44.3919296       32.0747604      -66.5098953       2356348.00       132300.000       158.353455    
          42   1554.21594       442.591980       76.2808990       56.5521851      -33.8851051       10.8451862       37.9429512      -14.5739222      -10.6742582       3606916.75       202587.000       106.922569    
          43   233.895096       444.871246       75.8736954       135.010803      -10.1795750       36.8891602       28.3107738      -58.0826302       27.2194595       1931909.12       108444.000       176.662842    
          44   856.852844       711.052917       76.6754913      -7.13687611      -84.0122757       17.4340153      -14.7555981      -14.0273066      -47.9559631       3963913.50       222852.000       128.628357    
          45   687.041321       610.513367       76.2261505       20.2834167       13.3830767       27.3397331      -11.6201019       7.83481359       75.2058945       2737587.00       153573.000       133.053040    
          46   1573.94409       148.016373       76.5374146      -89.3161469      -27.8916721       27.1478729       22.2643852      -6.72483063       20.5429573       2073985.38       116277.000       114.332451    
          47   822.562927       1012.95685       76.1084747      -21.1358681      -24.7853546      -44.7477837      -22.0562553      -5.72779322       58.2293358       2602618.00       145866.000       110.519203    
          48   947.388123       464.711487       76.0436020      -3.97249460      -131.781525       2.12010527      -30.1853142      -26.6170635       12.2381325       3188004.50       178836.000       149.863724    
          49   1444.35376       757.286621       76.5624084       49.1918182      -19.8198090       1.96380138      0.636164784      -3.46073723      -25.6037788       3073583.75       172704.000       75.7470322    
          50   1083.71350       455.929260       76.5835037       45.8477364      -58.5827217      -3.25365067       6.25021219       19.3707771       28.6360931       1870754.50       104895.000       109.050179    
          51   683.598633       928.037537       76.0143661       17.7338619       33.4730034       10.8852282      -19.8506374       25.6216755       28.9871883       1762021.88       98679.0000       77.9406281    
          52   143.131363       223.625961       76.0880127      -3.15586352     -0.462789059       7.10795259       20.2705078      -29.2236156      -39.6366310       2824995.50       158550.000       92.6978149    
          53   775.125183       812.814392       76.9201355       84.2220612      -18.9824600       5.71618128       11.9027109      -15.4338980       65.2536926       3798361.25       213696.000       150.419266    
          54   632.950684       410.673553       76.4796906      -105.068771      -52.5843773      -9.84631252      -9.20355797      -41.4342575      -21.4570179       2824322.00       158298.000       116.661713    
          55   1716.21240       1115.20276       76.7804184       62.3594437       44.1976967       36.9757080     -0.244433448       25.7658138       1.34044945       2179906.50       122451.000       50.1036072    
          56   740.224548       1099.58887       76.1368484      -80.2791290      -330.007568      -42.4146576       28.4146156       31.3406448      -19.5965023       2342238.75       131313.000       282.444305    
          57   525.761719       102.595558       76.4035568      -1.60352874      -156.740860       3.33322072      -38.4043770       1.85926437      -15.0420179       1498309.25       83874.0000       173.123322    
          58   891.154236       832.335754       77.1773834       21.1341305      -14.1945791       18.8099842      -5.65356255      -32.7452049       37.3925934       1567712.75       87738.0000       93.1593399    
          59   1606.78882       532.693420       76.4866333      -10.1567268      -121.945427       1.92821968      -10.2461920      -37.7904778      -17.8571911       2776702.00       155652.000       139.820145    
          60   1423.86719       858.093994       76.5557251       92.2080307       61.6038818       26.9859638       54.0148621      -25.8732853      -13.6529446       2621386.75       147378.000       120.477264    
          61   1301.78992       825.362610       76.3692093      -90.2614899      -115.116692      -46.8198318      -87.7027359       29.6302528      -42.4348373       2075187.38       116214.000       186.268692    
          62   1422.19299       1030.58057       76.7106934      -15.1988668      -10.1455126      -25.6077919       24.1542988       1.95334435      -8.39146519       3790652.50       212793.000       46.4700928    
          63   652.421997       136.136292       75.9524384      -24.3484116      -78.5178909      -34.0372620       19.2586136      -37.3872147      -61.5812798       1886004.75       105672.000       138.514343    
          64   408.789215       296.852600       76.9200058      -74.3005524       53.0373650       32.4295616       5.58919287       27.5070820       29.7005329       2251150.75       126294.000       137.932861    
          65   702.155884       970.977234       75.8733902      -81.3542252      -65.2054367      -31.3139725       17.7142754      -24.3379250      -77.1016388       2185941.50       122640.000       150.030319    
          66   142.168716       511.873230       76.0736847       21.6642227      -118.501007      -26.8448219       7.54958868      -18.5761204       29.9042168       2297722.75       129066.000       138.163406    
          67   1486.68359       325.423584       76.1393280      -30.0595264      -88.8392105      -22.0585651      -27.8146305       7.10330582      -70.3888397       1967045.00       110145.000       146.032394    
          68   117.289574       380.148895       75.9035797      -73.1637268      -34.7486343      -48.8245392      -14.8454189       5.41229057      -57.2168427       2294470.00       128604.000       108.182541    
          69   146.201630       990.837036       75.7189560      -14.2234507      -63.5667191      -9.86049652       14.1368895      -1.15973067       30.9568596       4260312.50       239442.000       78.4069366    
          70   289.491516       230.799088       76.6268234      -44.2822304      -26.6260662       12.7618809      -1.62908971       25.1283073      -16.3899174       3055312.75       171507.000       72.5722809    
          71   1525.29150       917.233887       77.1042099      -34.5145950      -49.6155396      -3.47815800      -15.2056398      -10.9186840      -23.5364571       2645224.25       148512.000       66.1298752    
          72   1072.02991       1029.06860       76.3354645      -88.8386688      -67.4129181      -19.6045074      -44.2022324       4.95505476      -8.02784634       1607541.12       90006.0000       99.4864120    
          73   195.155060       956.201355       76.5074692       40.4337158      -9.36844254      -15.0147657       12.2478304      -24.4634209       15.8014812       3253254.00       182679.000       76.0775909    
          74   1034.09387       359.357391       76.2193451      -42.8501434      -66.4450836      -22.0033627      -10.2133036      -42.4043579      -21.5511608       1849458.62       103719.000       92.6491699    
          75   1552.73328       757.910950       76.6052322       106.256798       25.9129581       23.8516655       6.53261089      -29.8678970       15.6630449       2239168.75       125685.000       100.823036    
          76   1561.99524       115.210236       76.2384720       18.9748402      -55.2673645       16.7805405       9.82131863      -21.5104542       1.06664205       2478529.25       139083.000       83.8731003    
          77   1059.01440       559.297485       76.4089508      -63.2361832      -174.861603      -30.9182301       24.5423489      -23.7070923      -3.13548732       2617282.75       146706.000       143.647980    
          78   1254.35327       295.898193       76.3381042       8.23759460       38.3479500       45.2708397      -19.1437302       3.14409924       16.2289677       3540588.50       198954.000       55.5180321    
          79   214.643326       689.537842       76.3500595       61.5647964      -9.30554676       25.3675404       12.3402109      -19.7207775       27.3009281       4507850.00       253470.000       87.3334274    
          80   608.652161       1073.15112       76.1841507       63.9046440       89.2051392       8.78208923      -9.87520790       36.7817574      -18.9420471       2609354.50       146874.000       102.473869    
          81   831.602051       514.253052       76.6105576      -76.7044296      -108.764175       17.8222027      -4.67704391      -10.8741760      -44.0369110       2407893.50       135072.000       138.678497    
          82   1150.75830       618.593933       76.5596390      -84.6746750      -42.9115105      -45.8477478      -46.5587044      -22.4830303      -43.4194908       2122134.25       119091.000       123.715446    
          83   1729.96277       960.391846       76.4026413      -5.53119802      -22.9378910       38.9537582      -27.1091709       41.4784584       39.0023460       1363246.00       76398.0000       122.416901    
          84   850.299561       242.629929       76.4128113      -54.6139832      -205.383453       27.4884148      -17.5682182       2.34275866       37.3991890       2383362.00       133749.000       216.770081    
          85   1159.10999       831.731812       76.2099457       45.5107460       32.1128540      -37.6559486       23.7780209      -2.79182863      -20.8810768       2867430.00       161049.000       94.9187469    
          86   1298.25244       1101.05298       76.2618027      -23.6865788      -14.7426729       3.86351085      -3.58091784      -24.1423340      -54.9444199       3505047.25       196833.000       106.940590    
          87   423.256622       637.197693       76.4235001       66.9699020      -22.4193172       11.7605286      -13.9844236       3.57086802       21.5314407       5925702.50       333270.000       90.1062698    
          88   809.528076       394.856903       76.0578918       3.66663241      -63.6108093       32.2277145      -2.59863234       4.57686901      -38.5998230       2967838.75       166635.000       108.703484    
          89   643.747253       541.275452       76.4335251       24.5678749      -25.8288803      -4.90596342       2.87657428       25.9373188      -46.7067146       4309199.50       242109.000       102.522011    
          90   960.935730       277.983612       76.3111038      -72.9115295      -23.1319771      -10.7606649       18.7008667     -0.439947367      -38.5091934       3035978.50       170289.000       93.5174484    
          91   333.051819       375.885040       76.4276657      -55.5926285      -34.8905716      -3.78019142       17.3681469      -18.3989925      -39.1392555       1961773.38       110124.000       92.5021667    
          92   355.797668       492.537628       76.3057251       40.0595894      -41.8121948       9.86287212       1.30569470       27.7562523       97.9875183       1970469.38       110628.000       190.429977    
          93   1259.13916       690.588867       76.0174179      -45.6998558      -33.1894302       24.9154396       7.90711021      -64.2120743      -25.9018631       2642426.75       148575.000       137.220490    
          94   1693.69312       710.699280       76.7761002       28.7855206      -94.9851379      -14.8043623      -25.4166927       5.36573553      -23.6947079       2882023.50       161700.000       124.630737    
          95   1009.07220       834.767090       77.0833893      -1.56978035      -225.309082      -8.23066807      -8.74022675       2.70678830       13.2939186       2010766.00       112854.000       222.249146    
          96   1363.60120       730.881958       75.7199097      -47.3504257      -28.8351746      -20.2981777      -24.3952885       23.7256012       25.4091110       1877528.88       105210.000       77.3610458    
          97   1039.82263       707.518250       77.0570221      -43.5670471      -141.968536       33.7171516      -1.57409704      -6.23824072       36.3531647       2585352.00       145194.000       165.376587    
          98   663.584290       865.133484       76.5832825      -32.5608292      -92.8544617       14.4593067      -11.7725306       8.17592525       6.64694214       2212820.75       124131.000       97.1086502    
          99   1162.40405       377.628204       76.5152664      -150.351257      -106.388321      -31.6322765      -5.65429735       12.5321407       73.6212311       2041688.50       114408.000       166.237885    
         100   394.980377       121.396027       76.5996017       82.2703171       48.8071556       17.5481586      -35.4633713       1.04788232      -13.5173807       3563294.25       200382.000       86.4137650    
         101   517.682861       731.746033       76.4357910      -20.5940952      -149.933228      -8.76118851      -2.30988145      -8.93750381      -55.0155449       2564847.75       143829.000       166.537872    
         102   212.928299       162.448761       76.2194748      -6.54609776       6.12293148       6.91172934       5.52981615       5.16982555       9.88401222       3573963.25       200655.000       25.2213955    
         103   476.562195       465.535736       77.1694183      -20.6166382      -68.3293381      -4.15076303      -5.83684540      -8.73434067       29.4757423       3342679.25       187845.000       79.1883087    
         104   1052.26465       928.687683       76.8739548       75.4942017      -55.2385216      -3.98255730       35.3489265      -28.5388680      -60.6033478       2186478.75       122619.000       173.861221    
         105   1117.33826       149.096771       76.4911041       21.6664009       23.4764004       44.9826927       14.1960468      -11.1433210       15.0411243       4123368.75       231966.000       46.4815407    
         106   1629.54211       822.943542       76.6503296       25.9417000      -17.5739536      -24.8736935      -9.01363468       36.5221138       56.2240372       1809315.38       101472.000       126.464661    
         107   920.868042       738.817261       76.4469376       42.2155838      -129.193390      -17.8831291       6.55149841       16.4051132      -16.7059002       2116129.25       118461.000       156.412415    
         108   926.175537       121.594124       76.3614273       60.2390900      -134.438416      -13.3118286      -36.1736374       5.67514896       33.6163559       3625709.00       203763.000       190.795074    
         109   1193.69861       434.934326       76.3554535       72.6350708       47.6811638      -41.1026382      -27.8652649       3.44341564       17.1967697       2995556.75       168063.000       118.207191    
         110   1364.72888       268.197693       76.4733505       9.15638828      -40.7095871       12.7867270       12.3481016      -14.9701834       82.2715912       2630615.25       147756.000       155.294601    
         111   248.514374       1086.65942       75.8670425       70.0806427       36.7989922       18.4393940      -6.16588497      -27.9099712      -24.0414200       4274422.00       240597.000       78.9981308    
         112   1634.34570       936.217163       76.3591309      -103.380234      -136.185837      -25.0968285       36.8197441      -3.95557904      -30.5507641       1937180.62       108444.000       129.177002    
         113   1318.35083       106.443085       76.3755951      -73.1999207      -9.86729145       13.4982338      -1.01176834      -1.32378840      -3.46443439       4388758.00       246666.000       77.9814377    
         114   1467.51086       206.802078       76.7388687      -32.9883423      -139.695694      -6.68000793      -16.1882133       1.56554794       16.3428001       2402382.25       134841.000       128.377060    
         115   271.832489       568.512939       76.4316864      -61.8299294      -18.2965374      -37.0812683      -48.3114624       17.9933701       26.7615910       2152178.50       120435.000       107.480621    
         116   838.341431       1053.01294       76.1125870      -28.7099609       17.0600338      -23.0023003      -30.9392509      -9.04789734      -6.53046513       2174591.25       122010.000       71.4945908    
         117   330.869415       858.429077       76.3199539      -49.2164116      -36.2844009      -19.9865456      -2.61287093       31.4224586      -61.4212341       6935879.00       389886.000       122.245323    
         118   905.242676       929.055115       76.5230865      -2.80846810      -118.777245      -53.5137024      -39.3607216       9.84847927       48.0061417       2030500.88       113736.000       148.297333    
         119   1035.48328       438.688110       76.5545883      -80.2056580      -109.109390      -34.9045486       26.9287510       46.7571373      -1.02611434       2951760.25       165459.000       113.729103    
         120   737.805237       633.471680       76.4617691      -26.9864864      -59.2689667      -9.67321968       13.3811979       14.5161152      -3.49739933       3675947.50       206388.000       55.7390404    
         121   571.207947       749.840271       76.4529266       145.748413       38.6566696       40.6320648      -8.98630619      -36.0556946       5.89017057       6015963.50       338772.000       124.528625    
         122   566.040955       946.056824       76.5498657      -112.470718      -81.6825485       32.3348885       5.01393843      -56.2457161       39.3591385       2262698.50       126966.000       177.965897    
